     Program PHONON v.6.8 starts on 12May2023 at 18:26:38

     Reading input from ph.aluminum.in

     Reading xml data from directory:

     ./al.save/
     Message from routine volume:
     axis vectors are left-handed
     file Al.pbe-n-kjpaw_psl.1.0.0.UPF: wavefunction(s)  3S 3P renormalized

     IMPORTANT: XC functional enforced from input :
     Exchange-correlation= PBE
                           (   1   4   3   4   0   0   0)
     Any further DFT definition will be discarded
     Please, verify this is what you really want

     Using Slab Decomposition

     Reading collected, re-writing distributed wavefunctions

     Dynamical matrices for ( 4, 4, 4)  uniform grid of q-points
     (   8 q-points):
       N         xq(1)         xq(2)         xq(3)
       1   0.000000000   0.000000000   0.000000000
       2  -0.176776695   0.176776695   0.176776695
       3   0.353553391  -0.353553391  -0.353553391
       4   0.000000000   0.000000000   0.353553391
       5   0.530330086  -0.530330086  -0.176776695
       6   0.353553391  -0.353553391   0.000000000
       7   0.000000000   0.000000000  -0.707106781
       8   0.000000000   0.353553391  -0.707106781

     Calculation of q =    0.0000000   0.0000000   0.0000000

     phonons of Al mesh

     bravais-lattice index     =            0
     lattice parameter (alat)  =       5.3943  a.u.
     unit-cell volume          =     110.9892 (a.u.)^3
     number of atoms/cell      =            1
     number of atomic types    =            1
     kinetic-energy cut-off    =      30.0000  Ry
     charge density cut-off    =     240.0000  Ry
     convergence threshold     =      1.0E-16
     beta                      =       0.0700
     number of iterations used =            4
     Exchange-correlation= PBE
                           (   1   4   3   4   0   0   0)

     celldm(1)=    5.39426  celldm(2)=    0.00000  celldm(3)=    0.00000
     celldm(4)=    0.00000  celldm(5)=    0.00000  celldm(6)=    0.00000

     crystal axes: (cart. coord. in units of alat)
               a(1) = (  0.7071  0.7071  0.0000 )
               a(2) = (  0.7071  0.0000  0.7071 )
               a(3) = (  0.0000  0.7071  0.7071 )

     reciprocal axes: (cart. coord. in units 2 pi/alat)
               b(1) = (  0.7071  0.7071 -0.7071 )
               b(2) = (  0.7071 -0.7071  0.7071 )
               b(3) = ( -0.7071  0.7071  0.7071 )

     Atoms inside the unit cell:

     Cartesian axes

     site n.  atom      mass           positions (alat units)
        1     Al  26.9815   tau(    1) = (    0.00000    0.00000    0.00000  )

     Computing dynamical matrix for
                    q = (   0.0000000   0.0000000   0.0000000 )

     49 Sym.Ops. (with q -> -q+G )

     G cutoff =  176.8949  (   6879 G-vectors)     FFT grid: ( 27, 27, 27)
     G cutoff =   88.4475  (   2445 G-vectors)  smooth grid: ( 20, 20, 20)

     number of k points=   104  Marzari-Vanderbilt smearing, width (Ry)=  0.0147

     PseudoPot. # 1 for Al read from file:
     ./pseudo/Al.pbe-n-kjpaw_psl.1.0.0.UPF
     MD5 check sum: cfc449ca30b5f3223ec38ddd88ac046d
     Pseudo is Projector augmented-wave + core cor, Zval =  3.0
     Generated using "atomic" code by A. Dal Corso  v.5.1
     Shape of augmentation charge: PSQ
     Using radial grid of 1135 points,  6 beta functions with:
                l(1) =   0
                l(2) =   0
                l(3) =   1
                l(4) =   1
                l(5) =   2
                l(6) =   2
     Q(r) pseudized with 0 coefficients

     Mode symmetry, O_h (m-3m)  point group:

     Atomic displacements:
     There are    1 irreducible representations

     Representation     1      3 modes -  To be done

     Alpha used in Ewald sum =   2.7000

     Representation #   1 modes #   1   2   3

     Self-consistent Calculation

     Pert. #  1: Fermi energy shift (Ry) =    -1.6544E-24     3.3854E-36
     Pert. #  2: Fermi energy shift (Ry) =     3.3087E-24    -1.2539E-37
     Pert. #  3: Fermi energy shift (Ry) =    -3.3087E-24     1.0658E-36

      thresh= 1.000E-02 alpha_mix =  0.070 |ddv_scf|^2 =  3.397E-08

[...]

     Pert. #  1: Fermi energy shift (Ry) =     2.7573E-24    -8.5713E-40
     Pert. #  2: Fermi energy shift (Ry) =    -1.6544E-24     1.1020E-39
     Pert. #  3: Fermi energy shift (Ry) =     1.3786E-24    -9.1835E-40

[...]

     End of self-consistent calculation

     Convergence has been achieved

     Number of q in the star =    1
     List of q in the star:
          1   0.000000000   0.000000000   0.000000000

     Diagonalizing the dynamical matrix

     q = (    0.000000000   0.000000000   0.000000000 )

     freq (    1) =       0.034665 [THz] =       1.156286 [cm-1]
     freq (    2) =       0.034665 [THz] =       1.156286 [cm-1]
     freq (    3) =       0.034665 [THz] =       1.156286 [cm-1]

     Mode symmetry, O_h (m-3m)  point group:

     freq (   1-   3) =          1.2  [cm-1]   --> T_1u G_15  G_4- I

[...]

     Subspace diagonalization in iterative solution of the eigenvalue problem:
     a serial algorithm will be used

[...]

     Title:
     phonons of Al mesh

     bravais-lattice index     =            0
     lattice parameter (alat)  =       5.3943  a.u.
     unit-cell volume          =     110.9892 (a.u.)^3
     number of atoms/cell      =            1
     number of atomic types    =            1
     number of electrons       =         3.00
     number of Kohn-Sham states=            6
     kinetic-energy cutoff     =      30.0000  Ry
     charge density cutoff     =     240.0000  Ry
     Exchange-correlation= PBE
                           (   1   4   3   4   0   0   0)

[...]

     atomic species   valence    mass     pseudopotential
        Al             3.00    26.98154     Al( 1.00)

     48 Sym. Ops., with inversion, found

[...]

     site n.     atom                  positions (alat units)
         1           Al  tau(   1) = (   0.0000000   0.0000000   0.0000000  )

[...]

     Number of k-points >= 100: set verbosity='high' to print them.

     The potential is recalculated from file :
     ./_ph0/al.save/charge-density

     Starting wfcs are    4 atomic +    2 random wfcs
     Checking if some PAW data can be deallocated...

     Band Structure Calculation
     Davidson diagonalization with overlap

     ethr =  3.33E-10,  avg # of iterations = 16.4

     End of band structure calculation

     Number of k-points >= 100: set verbosity='high' to print the bands.

     the Fermi energy is     7.9152 ev

     Writing output data file ./_ph0/al.save/

[...]

      6 Sym.Ops. (no q -> -q+G )

[...]

     Mode symmetry, C_3v (3m)   point group:

[...]

     Representation #   1 mode #   1

[...]

     Mode symmetry, C_3v (3m)   point group:

     freq (   1-   2) =        111.0  [cm-1]   --> E    L_3
     freq (   3-   3) =        199.2  [cm-1]   --> A_1  L_1

[...]

     Mode symmetry, D_3d (-3m)  point group:

[...]

     freq (   1-   2) =        134.0  [cm-1]   --> E_u  L_3'
     freq (   3-   3) =        316.5  [cm-1]   --> A_2u L_2'

[...]

     Mode symmetry, C_4v (4mm)  point group:

[...]

     Mode symmetry, C_4v (4mm)  point group:

     freq (   1-   2) =        136.4  [cm-1]   --> E    G_5 D_5
     freq (   3-   3) =        229.3  [cm-1]   --> A_1  G_1 D_1

[...]

     Mode symmetry, C_s (m)     point group:

[...]

     Mode symmetry, C_s (m)     point group:

     freq (   1-   1) =        168.8  [cm-1]   --> A''
     freq (   2-   2) =        214.2  [cm-1]   --> A'
     freq (   3-   3) =        284.2  [cm-1]   --> A'

[...]

     Mode symmetry, C_2v (mm2)  point group:

[...]

     Mode symmetry, C_2v (mm2)  point group:

     freq (   1-   1) =        154.8  [cm-1]   --> B_2  D_4  S_4
     freq (   2-   2) =        214.4  [cm-1]   --> B_1  D_3  S_3
     freq (   3-   3) =        281.1  [cm-1]   --> A_1  D_1  S_1

[...]

     17 Sym.Ops. (with q -> -q+G )

[...]

     Mode symmetry, D_4h(4/mmm) point group:

[...]

     Mode symmetry, D_4h(4/mmm) point group:

     freq (   1-   2) =        184.4  [cm-1]   --> E_u  X_5' M_5'
     freq (   3-   3) =        316.4  [cm-1]   --> A_2u X_4' M_4'

     Calculation of q =    0.0000000   0.3535534  -0.7071068

     Using Slab Decomposition

     Title:
     phonons of Al mesh

     bravais-lattice index     =            0
     lattice parameter (alat)  =       5.3943  a.u.
     unit-cell volume          =     110.9892 (a.u.)^3
     number of atoms/cell      =            1
     number of atomic types    =            1
     number of electrons       =         3.00
     number of Kohn-Sham states=            6
     kinetic-energy cutoff     =      30.0000  Ry
     charge density cutoff     =     240.0000  Ry
     Exchange-correlation= PBE
                           (   1   4   3   4   0   0   0)

[...]

     atomic species   valence    mass     pseudopotential
        Al             3.00    26.98154     Al( 1.00)

     48 Sym. Ops., with inversion, found

[...]

     site n.     atom                  positions (alat units)
         1           Al  tau(   1) = (   0.0000000   0.0000000   0.0000000  )

[...]

     Number of k-points >= 100: set verbosity='high' to print them.

     The potential is recalculated from file :
     ./_ph0/al.save/charge-density

     Starting wfcs are    4 atomic +    2 random wfcs
     Checking if some PAW data can be deallocated...

     Band Structure Calculation
     Davidson diagonalization with overlap

     ethr =  3.33E-10,  avg # of iterations = 15.9

     End of band structure calculation

     Number of k-points >= 100: set verbosity='high' to print the bands.

     the Fermi energy is     7.9152 ev

     Writing output data file ./_ph0/al.save/

     phonons of Al mesh

     bravais-lattice index     =            0
     lattice parameter (alat)  =       5.3943  a.u.
     unit-cell volume          =     110.9892 (a.u.)^3
     number of atoms/cell      =            1
     number of atomic types    =            1
     kinetic-energy cut-off    =      30.0000  Ry
     charge density cut-off    =     240.0000  Ry
     convergence threshold     =      1.0E-16
     beta                      =       0.0700
     number of iterations used =            4
     Exchange-correlation= PBE
                           (   1   4   3   4   0   0   0)

     celldm(1)=    5.39426  celldm(2)=    0.00000  celldm(3)=    0.00000
     celldm(4)=    0.00000  celldm(5)=    0.00000  celldm(6)=    0.00000

     crystal axes: (cart. coord. in units of alat)
               a(1) = (  0.7071  0.7071  0.0000 )
               a(2) = (  0.7071  0.0000  0.7071 )
               a(3) = (  0.0000  0.7071  0.7071 )

     reciprocal axes: (cart. coord. in units 2 pi/alat)
               b(1) = (  0.7071  0.7071 -0.7071 )
               b(2) = (  0.7071 -0.7071  0.7071 )
               b(3) = ( -0.7071  0.7071  0.7071 )

     Atoms inside the unit cell:

     Cartesian axes

     site n.  atom      mass           positions (alat units)
        1     Al  26.9815   tau(    1) = (    0.00000    0.00000    0.00000  )

     Computing dynamical matrix for
                    q = (   0.0000000   0.3535534  -0.7071068 )

      8 Sym.Ops. (no q -> -q+G )

     G cutoff =  176.8949  (   6879 G-vectors)     FFT grid: ( 27, 27, 27)
     G cutoff =   88.4475  (   2445 G-vectors)  smooth grid: ( 20, 20, 20)

     number of k points=   806  Marzari-Vanderbilt smearing, width (Ry)=  0.0147

     PseudoPot. # 1 for Al read from file:
     ./pseudo/Al.pbe-n-kjpaw_psl.1.0.0.UPF
     MD5 check sum: cfc449ca30b5f3223ec38ddd88ac046d
     Pseudo is Projector augmented-wave + core cor, Zval =  3.0
     Generated using "atomic" code by A. Dal Corso  v.5.1
     Shape of augmentation charge: PSQ
     Using radial grid of 1135 points,  6 beta functions with:
                l(1) =   0
                l(2) =   0
                l(3) =   1
                l(4) =   1
                l(5) =   2
                l(6) =   2
     Q(r) pseudized with 0 coefficients

[...]

     Atomic displacements:
     There are    2 irreducible representations

[...]

     Representation     2      2 modes -  To be done

     Alpha used in Ewald sum =   2.7000

     Representation #   1 mode #   1

[...]

     Representation #   2 modes #   2   3

     Self-consistent Calculation

[...]

      thresh= 1.029E-09 alpha_mix =  0.070 |ddv_scf|^2 =  3.597E-17

     End of self-consistent calculation

     Convergence has been achieved

     Number of q in the star =    6
     List of q in the star:
          1   0.000000000   0.353553391  -0.707106781
          2   0.000000000  -0.353553391   0.707106781
          3  -0.353553391   0.000000000   0.707106781
          4   0.353553391   0.000000000   0.707106781
          5  -0.707106781   0.000000000   0.353553391
          6  -0.707106781   0.000000000  -0.353553391

     Diagonalizing the dynamical matrix

     q = (    0.000000000   0.353553391  -0.707106781 )

     freq (    1) =       6.432111 [THz] =     214.552122 [cm-1]
     freq (    2) =       7.800922 [THz] =     260.210758 [cm-1]
     freq (    3) =       7.800922 [THz] =     260.210758 [cm-1]

     Mode symmetry, D_2d (-42m) point group:

     freq (   1-   1) =        214.6  [cm-1]   --> B_2  X_3  W_2
     freq (   2-   3) =        260.2  [cm-1]   --> E    X_5  W_3

     General routines

     Parallel routines

     INITIALIZATION:

     DYNAMICAL MATRIX:

      General routines

   This run was terminated on:  18:36:47  12May2023

   JOB DONE.