     Program PHONON v.6.8 starts on 13May2023 at 18: 6:11

     K-points division:     npool     =       4
     R & G space division:  proc/nbgrp/npool/nimage =      12

     Reading input from ph.aln.in

     Reading xml data from directory:

     ./aln.save/
     file Al.pbe-n-kjpaw_psl.1.0.0.UPF: wavefunction(s)  3S 3P renormalized

     IMPORTANT: XC functional enforced from input :
     Exchange-correlation= PBE
                           (   1   4   3   4   0   0   0)
     Any further DFT definition will be discarded
     Please, verify this is what you really want

     Using Slab Decomposition

     Reading collected, re-writing distributed wavefunctions

     Dynamical matrices for ( 4, 4, 2)  uniform grid of q-points
     (   8 q-points):
       N         xq(1)         xq(2)         xq(3)
       1   0.000000000   0.000000000   0.000000000
       2   0.000000000   0.000000000  -0.311861657
       3   0.144337567   0.250000001   0.000000000
       4   0.144337567   0.250000001  -0.311861657
       5  -0.288675134  -0.500000003   0.000000000
       6  -0.288675134  -0.500000003  -0.311861657
       7   0.433012701   0.250000001   0.000000000
       8   0.433012701   0.250000001  -0.311861657
Eigenvectors exchange needed    1    3
Eigenvectors exchange needed    3    4
Eigenvectors exchange needed    5    9
Eigenvectors exchange needed    5   10
Eigenvectors exchange needed    6    9
Eigenvectors exchange needed    7   10
Eigenvectors exchange needed    9   11
Eigenvectors exchange needed    9   12
Eigenvectors exchange needed   10   11
Eigenvectors exchange needed   11   12
Eigenvectors exchange needed    1    7
Eigenvectors exchange needed    3    9
Eigenvectors exchange needed    5   11
Eigenvectors exchange needed    7    8
Eigenvectors exchange needed    9   10
Eigenvectors exchange needed   11   12

     Calculation of q =    0.0000000   0.0000000   0.0000000

     phonons of Si mesh

     bravais-lattice index     =            0
     lattice parameter (alat)  =       5.9161  a.u.
     unit-cell volume          =     287.5046 (a.u.)^3
     number of atoms/cell      =            4
     number of atomic types    =            2
     kinetic-energy cut-off    =      60.0000  Ry
     charge density cut-off    =     600.0000  Ry
     convergence threshold     =      1.0E-18
     beta                      =       0.5000
     number of iterations used =            4
     Exchange-correlation= PBE
                           (   1   4   3   4   0   0   0)

     celldm(1)=    5.91610  celldm(2)=    0.00000  celldm(3)=    0.00000
     celldm(4)=    0.00000  celldm(5)=    0.00000  celldm(6)=    0.00000

     crystal axes: (cart. coord. in units of alat)
               a(1) = (  0.8660 -0.5000  0.0000 )
               a(2) = (  0.0000  1.0000  0.0000 )
               a(3) = (  0.0000  0.0000  1.6033 )

     reciprocal axes: (cart. coord. in units 2 pi/alat)
               b(1) = (  1.1547  0.0000  0.0000 )
               b(2) = (  0.5774  1.0000  0.0000 )
               b(3) = (  0.0000  0.0000  0.6237 )

     Atoms inside the unit cell:

     Cartesian axes

     site n.  atom      mass           positions (alat units)
        1     Al  26.9815   tau(    1) = (    0.28868    0.50000   -0.00120  )
        2     Al  26.9815   tau(    2) = (    0.57735    0.00000    0.80043  )
        3     N   14.0067   tau(    3) = (    0.28868    0.50000    0.61045  )
        4     N   14.0067   tau(    4) = (    0.57735    0.00000    1.41208  )

     Computing dynamical matrix for
                    q = (   0.0000000   0.0000000   0.0000000 )

     13 Sym.Ops. (with q -> -q+G )

     G cutoff =  531.9396  (   5941 G-vectors)     FFT grid: ( 48, 48, 80)
     G cutoff =  212.7758  (   1508 G-vectors)  smooth grid: ( 30, 30, 48)
     number of k points=    30

     PseudoPot. # 1 for Al read from file:
     ./pseudo/Al.pbe-n-kjpaw_psl.1.0.0.UPF
     MD5 check sum: cfc449ca30b5f3223ec38ddd88ac046d
     Pseudo is Projector augmented-wave + core cor, Zval =  3.0
     Generated using "atomic" code by A. Dal Corso  v.5.1
     Shape of augmentation charge: PSQ
     Using radial grid of 1135 points,  6 beta functions with:
                l(1) =   0
                l(2) =   0
                l(3) =   1
                l(4) =   1
                l(5) =   2
                l(6) =   2
     Q(r) pseudized with 0 coefficients

     PseudoPot. # 2 for N  read from file:
     ./pseudo/N.pbe-n-radius_5.UPF
     MD5 check sum: 16739722b17309cd8fe442a2ace49922
     Pseudo is Ultrasoft + core correction, Zval =  5.0
     Generated using "atomic" code by A. Dal Corso  v.5.1
     Using radial grid of 1085 points,  4 beta functions with:
                l(1) =   0
                l(2) =   0
                l(3) =   1
                l(4) =   1
     Q(r) pseudized with 0 coefficients

     Mode symmetry, C_6v (6mm)  point group:

     Electric field:
     Dielectric constant
     Born effective charges in two ways

     Atomic displacements:
     There are    8 irreducible representations

     Representation     1      1 modes -  To be done

[...]

     Alpha used in Ewald sum =   2.8000

     Electric Fields Calculation

      thresh= 1.000E-02 alpha_mix =  0.500 |ddv_scf|^2 =  1.529E-08

[...]

     End of electric fields calculation

          Dielectric constant in cartesian axis

          (       4.477564613       0.000000000       0.000000000 )
          (       0.000000000       4.477564659       0.000000000 )
          (       0.000000000       0.000000000       4.693871766 )

          Effective charges (d Force / dE) in cartesian axis

           atom      1   Al
      Ex  (        2.52698        0.00000        0.00000 )
      Ey  (        0.00000        2.52698        0.00000 )
      Ez  (        0.00000       -0.00000        2.68559 )
           atom      2   Al
      Ex  (        2.52698        0.00000        0.00000 )
      Ey  (        0.00000        2.52698        0.00000 )
      Ez  (        0.00000        0.00000        2.68559 )
           atom      3   N
      Ex  (       -2.51065        0.00000       -0.00000 )
      Ey  (       -0.00000       -2.51065       -0.00000 )
      Ez  (       -0.00000       -0.00000       -2.66725 )
           atom      4   N
      Ex  (       -2.51065       -0.00000        0.00000 )
      Ey  (        0.00000       -2.51065        0.00000 )
      Ez  (       -0.00000        0.00000       -2.66725 )

     Representation #   1 mode #   1

     Self-consistent Calculation

[...]

     End of self-consistent calculation

     Convergence has been achieved

[...]

     Representation #   5 modes #   5   6

[...]

     Number of q in the star =    1
     List of q in the star:
          1   0.000000000   0.000000000   0.000000000

          Dielectric constant in cartesian axis

          (       4.477564613       0.000000000       0.000000000 )
          (       0.000000000       4.477564659       0.000000000 )
          (       0.000000000       0.000000000       4.693871766 )

          Effective charges (d Force / dE) in cartesian axis

[...]

          Effective charges (d P / du) in cartesian axis

           atom      1   Al
      Px  (        2.52698       -0.00000        0.00000 )
      Py  (       -0.00000        2.52698        0.00000 )
      Pz  (        0.00000        0.00000        2.68558 )
           atom      2   Al
      Px  (        2.52698       -0.00000        0.00000 )
      Py  (        0.00000        2.52698        0.00000 )
      Pz  (        0.00000        0.00000        2.68558 )
           atom      3   N
      Px  (       -2.51066        0.00000        0.00000 )
      Py  (        0.00000       -2.51066       -0.00000 )
      Pz  (       -0.00000       -0.00000       -2.66731 )
           atom      4   N
      Px  (       -2.51066        0.00000        0.00000 )
      Py  (        0.00000       -2.51066        0.00000 )
      Pz  (       -0.00000        0.00000       -2.66731 )

     Diagonalizing the dynamical matrix

     q = (    0.000000000   0.000000000   0.000000000 )

     freq (    1) =      -0.193388 [THz] =      -6.450724 [cm-1]
     freq (    2) =      -0.191004 [THz] =      -6.371221 [cm-1]
     freq (    3) =      -0.191004 [THz] =      -6.371221 [cm-1]
     freq (    4) =       7.087335 [THz] =     236.408043 [cm-1]
     freq (    5) =       7.087335 [THz] =     236.408045 [cm-1]
     freq (    6) =      16.116173 [THz] =     537.577656 [cm-1]
     freq (    7) =      17.962002 [THz] =     599.147889 [cm-1]
     freq (    8) =      19.217226 [THz] =     641.017655 [cm-1]
     freq (    9) =      19.217226 [THz] =     641.017659 [cm-1]
     freq (   10) =      19.590390 [THz] =     653.465067 [cm-1]
     freq (   11) =      19.590390 [THz] =     653.465072 [cm-1]
     freq (   12) =      21.228133 [THz] =     708.094291 [cm-1]

[...]

     freq (   1-   1) =         -6.5  [cm-1]   --> A_1             I+R
     freq (   2-   3) =         -6.4  [cm-1]   --> E_1             I+R
     freq (   4-   5) =        236.4  [cm-1]   --> E_2             R
     freq (   6-   6) =        537.6  [cm-1]   --> B_2
     freq (   7-   7) =        599.1  [cm-1]   --> A_1             I+R
     freq (   8-   9) =        641.0  [cm-1]   --> E_2             R
     freq (  10-  11) =        653.5  [cm-1]   --> E_1             I+R
     freq (  12-  12) =        708.1  [cm-1]   --> B_2

[...]

     Title:
     phonons of Si mesh

     bravais-lattice index     =            0
     lattice parameter (alat)  =       5.9161  a.u.
     unit-cell volume          =     287.5046 (a.u.)^3
     number of atoms/cell      =            4
     number of atomic types    =            2
     number of electrons       =        16.00
     number of Kohn-Sham states=            8
     kinetic-energy cutoff     =      60.0000  Ry
     charge density cutoff     =     600.0000  Ry
     Exchange-correlation= PBE
                           (   1   4   3   4   0   0   0)

[...]

     atomic species   valence    mass     pseudopotential
        Al             3.00    26.98154     Al( 1.00)
        N              5.00    14.00670     N ( 1.00)

     12 Sym. Ops. (no inversion) found

[...]

     site n.     atom                  positions (alat units)
         1           Al  tau(   1) = (   0.2886751   0.5000000  -0.0012027  )
         2           Al  tau(   2) = (   0.5773503   0.0000000   0.8004348  )
         3           N   tau(   3) = (   0.2886751   0.5000000   0.6104472  )
         4           N   tau(   4) = (   0.5773503   0.0000000   1.4120847  )

     number of k points=    60
                       cart. coord. in units 2pi/alat
        k(    1) = (   0.0000000   0.0000000   0.0000000), wk =   0.0078125
        k(    2) = (   0.0000000   0.0000000  -0.3118617), wk =   0.0000000
        k(    3) = (   0.0000000   0.0000000   0.1559308), wk =   0.0156250
        k(    4) = (   0.0000000   0.0000000  -0.1559308), wk =   0.0000000
        k(    5) = (   0.0000000   0.0000000  -0.3118617), wk =   0.0078125
        k(    6) = (   0.0000000   0.0000000  -0.6237233), wk =   0.0000000
        k(    7) = (   0.0721688   0.1250000   0.0000000), wk =   0.0468750
        k(    8) = (   0.0721688   0.1250000  -0.3118617), wk =   0.0000000
        k(    9) = (   0.0721688   0.1250000   0.1559308), wk =   0.0937500
        k(   10) = (   0.0721688   0.1250000  -0.1559308), wk =   0.0000000
        k(   11) = (   0.0721688   0.1250000  -0.3118617), wk =   0.0468750
        k(   12) = (   0.0721688   0.1250000  -0.6237233), wk =   0.0000000
        k(   13) = (   0.1443376   0.2500000   0.0000000), wk =   0.0468750
        k(   14) = (   0.1443376   0.2500000  -0.3118617), wk =   0.0000000
        k(   15) = (   0.1443376   0.2500000   0.1559308), wk =   0.0937500
        k(   16) = (   0.1443376   0.2500000  -0.1559308), wk =   0.0000000
        k(   17) = (   0.1443376   0.2500000  -0.3118617), wk =   0.0468750
        k(   18) = (   0.1443376   0.2500000  -0.6237233), wk =   0.0000000
        k(   19) = (   0.2165064   0.3750000   0.0000000), wk =   0.0468750
        k(   20) = (   0.2165064   0.3750000  -0.3118617), wk =   0.0000000
        k(   21) = (   0.2165064   0.3750000   0.1559308), wk =   0.0937500
        k(   22) = (   0.2165064   0.3750000  -0.1559308), wk =   0.0000000
        k(   23) = (   0.2165064   0.3750000  -0.3118617), wk =   0.0468750
        k(   24) = (   0.2165064   0.3750000  -0.6237233), wk =   0.0000000
        k(   25) = (  -0.2886751  -0.5000000   0.0000000), wk =   0.0234375
        k(   26) = (  -0.2886751  -0.5000000  -0.3118617), wk =   0.0000000
        k(   27) = (  -0.2886751  -0.5000000   0.1559308), wk =   0.0468750
        k(   28) = (  -0.2886751  -0.5000000  -0.1559308), wk =   0.0000000
        k(   29) = (  -0.2886751  -0.5000000  -0.3118617), wk =   0.0234375
        k(   30) = (  -0.2886751  -0.5000000  -0.6237233), wk =   0.0000000
        k(   31) = (   0.2165064   0.1250000   0.0000000), wk =   0.0468750
        k(   32) = (   0.2165064   0.1250000  -0.3118617), wk =   0.0000000
        k(   33) = (   0.2165064   0.1250000   0.1559308), wk =   0.0937500
        k(   34) = (   0.2165064   0.1250000  -0.1559308), wk =   0.0000000
        k(   35) = (   0.2165064   0.1250000  -0.3118617), wk =   0.0468750
        k(   36) = (   0.2165064   0.1250000  -0.6237233), wk =   0.0000000
        k(   37) = (   0.2886751   0.2500000   0.0000000), wk =   0.0937500
        k(   38) = (   0.2886751   0.2500000  -0.3118617), wk =   0.0000000
        k(   39) = (   0.2886751   0.2500000   0.1559308), wk =   0.1875000
        k(   40) = (   0.2886751   0.2500000  -0.1559308), wk =   0.0000000
        k(   41) = (   0.2886751   0.2500000  -0.3118617), wk =   0.0937500
        k(   42) = (   0.2886751   0.2500000  -0.6237233), wk =   0.0000000
        k(   43) = (   0.3608439   0.3750000   0.0000000), wk =   0.0937500
        k(   44) = (   0.3608439   0.3750000  -0.3118617), wk =   0.0000000
        k(   45) = (   0.3608439   0.3750000   0.1559308), wk =   0.1875000
        k(   46) = (   0.3608439   0.3750000  -0.1559308), wk =   0.0000000
        k(   47) = (   0.3608439   0.3750000  -0.3118617), wk =   0.0937500
        k(   48) = (   0.3608439   0.3750000  -0.6237233), wk =   0.0000000
        k(   49) = (   0.4330127   0.2500000   0.0000000), wk =   0.0468750
        k(   50) = (   0.4330127   0.2500000  -0.3118617), wk =   0.0000000
        k(   51) = (   0.4330127   0.2500000   0.1559308), wk =   0.0937500
        k(   52) = (   0.4330127   0.2500000  -0.1559308), wk =   0.0000000
        k(   53) = (   0.4330127   0.2500000  -0.3118617), wk =   0.0468750
        k(   54) = (   0.4330127   0.2500000  -0.6237233), wk =   0.0000000
        k(   55) = (   0.5051815   0.3750000   0.0000000), wk =   0.0468750
        k(   56) = (   0.5051815   0.3750000  -0.3118617), wk =   0.0000000
        k(   57) = (   0.5051815   0.3750000   0.1559308), wk =   0.0937500
        k(   58) = (   0.5051815   0.3750000  -0.1559308), wk =   0.0000000
        k(   59) = (   0.5051815   0.3750000  -0.3118617), wk =   0.0468750
        k(   60) = (   0.5051815   0.3750000  -0.6237233), wk =   0.0000000

     The potential is recalculated from file :
     ./_ph0/aln.save/charge-density

     Starting wfcs are   16 atomic wfcs
     Checking if some PAW data can be deallocated...

     Band Structure Calculation
     Davidson diagonalization with overlap

     ethr =  6.25E-11,  avg # of iterations = 13.8

     End of band structure calculation

          k = 0.0000 0.0000 0.0000 (  2297 PWs)   bands (ev):

    -8.1616  -6.0802   0.9957   6.0576   6.0576   6.7000   6.7000   6.9011

[...]

          k =-0.2887-0.5000 0.0000 (  2256 PWs)   bands (ev):

[...]

          k =-0.2887-0.5000-0.6237 (  2256 PWs)   bands (ev):

[...]

          k = 0.5052 0.3750-0.6237 (  2256 PWs)   bands (ev):

    -5.9208  -5.6089   2.0447   3.1493   3.3302   4.1618   4.7553   4.9076

     highest occupied level (ev):     6.9011

     Writing output data file ./_ph0/aln.save/

[...]

     Mode symmetry, C_6v (6mm)  point group:

     freq (   1-   2) =        172.4  [cm-1]   --> E_1
     freq (   3-   4) =        172.4  [cm-1]   --> E_2
     freq (   5-   5) =        341.0  [cm-1]   --> A_1
     freq (   6-   6) =        341.0  [cm-1]   --> B_2
     freq (   7-   8) =        646.2  [cm-1]   --> E_1
     freq (   9-  10) =        646.2  [cm-1]   --> E_2
     freq (  11-  11) =        807.3  [cm-1]   --> A_1
     freq (  12-  12) =        807.3  [cm-1]   --> B_2

[...]

     number of k points=   288

     Number of k-points >= 100: set verbosity='high' to print them.

[...]

     Number of k-points >= 100: set verbosity='high' to print the bands.

[...]

      2 Sym.Ops. (no q -> -q+G )

[...]

     Mode symmetry, C_s (m)     point group:

[...]

     freq (   1-   1) =        164.1  [cm-1]   --> A''
     freq (   2-   2) =        179.7  [cm-1]   --> A'
     freq (   3-   3) =        295.1  [cm-1]   --> A''
     freq (   4-   4) =        311.0  [cm-1]   --> A'
     freq (   5-   5) =        387.1  [cm-1]   --> A'
     freq (   6-   6) =        491.3  [cm-1]   --> A'
     freq (   7-   7) =        603.4  [cm-1]   --> A'
     freq (   8-   8) =        641.5  [cm-1]   --> A''
     freq (   9-   9) =        654.8  [cm-1]   --> A''
     freq (  10-  10) =        662.3  [cm-1]   --> A'
     freq (  11-  11) =        706.9  [cm-1]   --> A'
     freq (  12-  12) =        837.8  [cm-1]   --> A'

[...]

     freq (   1-   1) =        245.5  [cm-1]   --> A''
     freq (   2-   2) =        245.5  [cm-1]   --> A''
     freq (   3-   3) =        268.5  [cm-1]   --> A'
     freq (   4-   4) =        268.5  [cm-1]   --> A'
     freq (   5-   5) =        414.1  [cm-1]   --> A'
     freq (   6-   6) =        414.1  [cm-1]   --> A'
     freq (   7-   7) =        647.6  [cm-1]   --> A''
     freq (   8-   8) =        647.6  [cm-1]   --> A''
     freq (   9-   9) =        648.6  [cm-1]   --> A'
     freq (  10-  10) =        648.6  [cm-1]   --> A'
     freq (  11-  11) =        788.6  [cm-1]   --> A'
     freq (  12-  12) =        788.6  [cm-1]   --> A'

[...]

     Mode symmetry, C_2v (mm2)  point group:

[...]

     freq (   1-   1) =        223.4  [cm-1]   --> A_2  D_2  S_2
     freq (   2-   2) =        299.6  [cm-1]   --> B_1  D_3  S_3
     freq (   3-   3) =        336.3  [cm-1]   --> B_2  D_4  S_4
     freq (   4-   4) =        394.5  [cm-1]   --> A_1  D_1  S_1
     freq (   5-   5) =        492.7  [cm-1]   --> B_1  D_3  S_3
     freq (   6-   6) =        509.8  [cm-1]   --> A_1  D_1  S_1
     freq (   7-   7) =        622.0  [cm-1]   --> B_1  D_3  S_3
     freq (   8-   8) =        641.4  [cm-1]   --> A_2  D_2  S_2
     freq (   9-   9) =        656.6  [cm-1]   --> B_2  D_4  S_4
     freq (  10-  10) =        659.0  [cm-1]   --> A_1  D_1  S_1
     freq (  11-  11) =        713.0  [cm-1]   --> B_1  D_3  S_3
     freq (  12-  12) =        732.0  [cm-1]   --> A_1  D_1  S_1

[...]

      5 Sym.Ops. (with q -> -q+G )

[...]

     Representation #   6 modes #  11  12

[...]

     Mode symmetry, C_2v (mm2)  point group:

     freq (   1-   1) =        266.6  [cm-1]   --> A_1  D_1  S_1
     freq (   2-   2) =        266.6  [cm-1]   --> B_1  D_3  S_3
     freq (   3-   3) =        292.8  [cm-1]   --> A_2  D_2  S_2
     freq (   4-   4) =        292.8  [cm-1]   --> B_2  D_4  S_4
     freq (   5-   5) =        557.7  [cm-1]   --> A_1  D_1  S_1
     freq (   6-   6) =        557.7  [cm-1]   --> B_1  D_3  S_3
     freq (   7-   7) =        649.1  [cm-1]   --> A_2  D_2  S_2
     freq (   8-   8) =        649.1  [cm-1]   --> B_2  D_4  S_4
     freq (   9-   9) =        656.0  [cm-1]   --> A_1  D_1  S_1
     freq (  10-  10) =        656.0  [cm-1]   --> B_1  D_3  S_3
     freq (  11-  11) =        711.2  [cm-1]   --> A_1  D_1  S_1
     freq (  12-  12) =        711.2  [cm-1]   --> B_1  D_3  S_3

[...]

     freq (   1-   1) =        290.4  [cm-1]   --> A'
     freq (   2-   2) =        307.7  [cm-1]   --> A''
     freq (   3-   3) =        394.1  [cm-1]   --> A'
     freq (   4-   4) =        395.2  [cm-1]   --> A''
     freq (   5-   5) =        423.7  [cm-1]   --> A'
     freq (   6-   6) =        490.0  [cm-1]   --> A''
     freq (   7-   7) =        619.8  [cm-1]   --> A'
     freq (   8-   8) =        636.1  [cm-1]   --> A''
     freq (   9-   9) =        668.4  [cm-1]   --> A''
     freq (  10-  10) =        677.2  [cm-1]   --> A'
     freq (  11-  11) =        692.2  [cm-1]   --> A''
     freq (  12-  12) =        753.4  [cm-1]   --> A'

     Calculation of q =    0.4330127   0.2500000  -0.3118617

     Using Slab Decomposition

     Title:
     phonons of Si mesh

     bravais-lattice index     =            0
     lattice parameter (alat)  =       5.9161  a.u.
     unit-cell volume          =     287.5046 (a.u.)^3
     number of atoms/cell      =            4
     number of atomic types    =            2
     number of electrons       =        16.00
     number of Kohn-Sham states=            8
     kinetic-energy cutoff     =      60.0000  Ry
     charge density cutoff     =     600.0000  Ry
     Exchange-correlation= PBE
                           (   1   4   3   4   0   0   0)

[...]

     atomic species   valence    mass     pseudopotential
        Al             3.00    26.98154     Al( 1.00)
        N              5.00    14.00670     N ( 1.00)

     12 Sym. Ops. (no inversion) found

[...]

     site n.     atom                  positions (alat units)
         1           Al  tau(   1) = (   0.2886751   0.5000000  -0.0012027  )
         2           Al  tau(   2) = (   0.5773503   0.0000000   0.8004348  )
         3           N   tau(   3) = (   0.2886751   0.5000000   0.6104472  )
         4           N   tau(   4) = (   0.5773503   0.0000000   1.4120847  )

     number of k points=   288

     Number of k-points >= 100: set verbosity='high' to print them.

     The potential is recalculated from file :
     ./_ph0/aln.save/charge-density

     Starting wfcs are   16 atomic wfcs
     Checking if some PAW data can be deallocated...

     Band Structure Calculation
     Davidson diagonalization with overlap

     ethr =  6.25E-11,  avg # of iterations = 13.7

     End of band structure calculation

     Number of k-points >= 100: set verbosity='high' to print the bands.

     highest occupied level (ev):     6.9011

     Writing output data file ./_ph0/aln.save/

     phonons of Si mesh

     bravais-lattice index     =            0
     lattice parameter (alat)  =       5.9161  a.u.
     unit-cell volume          =     287.5046 (a.u.)^3
     number of atoms/cell      =            4
     number of atomic types    =            2
     kinetic-energy cut-off    =      60.0000  Ry
     charge density cut-off    =     600.0000  Ry
     convergence threshold     =      1.0E-18
     beta                      =       0.5000
     number of iterations used =            4
     Exchange-correlation= PBE
                           (   1   4   3   4   0   0   0)

     celldm(1)=    5.91610  celldm(2)=    0.00000  celldm(3)=    0.00000
     celldm(4)=    0.00000  celldm(5)=    0.00000  celldm(6)=    0.00000

     crystal axes: (cart. coord. in units of alat)
               a(1) = (  0.8660 -0.5000  0.0000 )
               a(2) = (  0.0000  1.0000  0.0000 )
               a(3) = (  0.0000  0.0000  1.6033 )

     reciprocal axes: (cart. coord. in units 2 pi/alat)
               b(1) = (  1.1547  0.0000  0.0000 )
               b(2) = (  0.5774  1.0000  0.0000 )
               b(3) = (  0.0000  0.0000  0.6237 )

     Atoms inside the unit cell:

     Cartesian axes

     site n.  atom      mass           positions (alat units)
        1     Al  26.9815   tau(    1) = (    0.28868    0.50000   -0.00120  )
        2     Al  26.9815   tau(    2) = (    0.57735    0.00000    0.80043  )
        3     N   14.0067   tau(    3) = (    0.28868    0.50000    0.61045  )
        4     N   14.0067   tau(    4) = (    0.57735    0.00000    1.41208  )

     Computing dynamical matrix for
                    q = (   0.4330127   0.2500000  -0.3118617 )

      2 Sym.Ops. (no q -> -q+G )

     G cutoff =  531.9396  (   5941 G-vectors)     FFT grid: ( 48, 48, 80)
     G cutoff =  212.7758  (   1508 G-vectors)  smooth grid: ( 30, 30, 48)
     number of k points=   288

     PseudoPot. # 1 for Al read from file:
     ./pseudo/Al.pbe-n-kjpaw_psl.1.0.0.UPF
     MD5 check sum: cfc449ca30b5f3223ec38ddd88ac046d
     Pseudo is Projector augmented-wave + core cor, Zval =  3.0
     Generated using "atomic" code by A. Dal Corso  v.5.1
     Shape of augmentation charge: PSQ
     Using radial grid of 1135 points,  6 beta functions with:
                l(1) =   0
                l(2) =   0
                l(3) =   1
                l(4) =   1
                l(5) =   2
                l(6) =   2
     Q(r) pseudized with 0 coefficients

     PseudoPot. # 2 for N  read from file:
     ./pseudo/N.pbe-n-radius_5.UPF
     MD5 check sum: 16739722b17309cd8fe442a2ace49922
     Pseudo is Ultrasoft + core correction, Zval =  5.0
     Generated using "atomic" code by A. Dal Corso  v.5.1
     Using radial grid of 1085 points,  4 beta functions with:
                l(1) =   0
                l(2) =   0
                l(3) =   1
                l(4) =   1
     Q(r) pseudized with 0 coefficients

[...]

     Atomic displacements:
     There are   12 irreducible representations

[...]

     Representation    12      1 modes -  To be done

     Alpha used in Ewald sum =   2.8000

[...]

     Representation #  12 mode #  12

     Self-consistent Calculation

[...]

      thresh= 1.030E-10 alpha_mix =  0.500 |ddv_scf|^2 =  7.569E-20

     End of self-consistent calculation

     Convergence has been achieved

     Number of q in the star =    6
     List of q in the star:
          1   0.433012701   0.250000001  -0.311861657
          2  -0.433012701  -0.250000001  -0.311861657
          3   0.000000000  -0.500000003  -0.311861657
          4  -0.433012701   0.250000001  -0.311861657
          5   0.433012701  -0.250000001  -0.311861657
          6   0.000000000   0.500000003  -0.311861657

     Diagonalizing the dynamical matrix

     q = (    0.433012701   0.250000001  -0.311861657 )

     freq (    1) =       7.559634 [THz] =     252.162248 [cm-1]
     freq (    2) =       7.559634 [THz] =     252.162248 [cm-1]
     freq (    3) =      10.930430 [THz] =     364.599893 [cm-1]
     freq (    4) =      10.930430 [THz] =     364.599893 [cm-1]
     freq (    5) =      15.462637 [THz] =     515.778042 [cm-1]
     freq (    6) =      15.462637 [THz] =     515.778042 [cm-1]
     freq (    7) =      18.644363 [THz] =     621.909001 [cm-1]
     freq (    8) =      18.644363 [THz] =     621.909001 [cm-1]
     freq (    9) =      20.263238 [THz] =     675.908869 [cm-1]
     freq (   10) =      20.263238 [THz] =     675.908869 [cm-1]
     freq (   11) =      21.761542 [THz] =     725.886903 [cm-1]
     freq (   12) =      21.761542 [THz] =     725.886903 [cm-1]

     Mode symmetry, C_s (m)     point group:

     freq (   1-   1) =        252.2  [cm-1]   --> A'
     freq (   2-   2) =        252.2  [cm-1]   --> A''
     freq (   3-   3) =        364.6  [cm-1]   --> A'
     freq (   4-   4) =        364.6  [cm-1]   --> A''
     freq (   5-   5) =        515.8  [cm-1]   --> A'
     freq (   6-   6) =        515.8  [cm-1]   --> A''
     freq (   7-   7) =        621.9  [cm-1]   --> A'
     freq (   8-   8) =        621.9  [cm-1]   --> A''
     freq (   9-   9) =        675.9  [cm-1]   --> A'
     freq (  10-  10) =        675.9  [cm-1]   --> A''
     freq (  11-  11) =        725.9  [cm-1]   --> A'
     freq (  12-  12) =        725.9  [cm-1]   --> A''

     General routines

     Parallel routines

     INITIALIZATION:

     DYNAMICAL MATRIX:

      General routines

   This run was terminated on:  18:16:58  13May2023

   JOB DONE.