     Program PHONON v.6.8 starts on 12May2023 at 12:41:31

     Waiting for input...
     Reading input from standard input

     Reading xml data from directory:

     ./si.save/
     Message from routine volume:
     axis vectors are left-handed

     IMPORTANT: XC functional enforced from input :
     Exchange-correlation= PBE
                           (   1   4   3   4   0   0   0)
     Any further DFT definition will be discarded
     Please, verify this is what you really want

     Using Slab Decomposition

     Reading collected, re-writing distributed wavefunctions

     Dynamical matrices for ( 4, 4, 4)  uniform grid of q-points
     (   8 q-points):
       N         xq(1)         xq(2)         xq(3)
       1   0.000000000   0.000000000   0.000000000
       2  -0.176776695   0.176776695   0.176776695
       3   0.353553391  -0.353553391  -0.353553391
       4   0.000000000   0.000000000   0.353553391
       5   0.530330086  -0.530330086  -0.176776695
       6   0.353553391  -0.353553391   0.000000000
       7   0.000000000   0.000000000  -0.707106781
       8   0.000000000   0.353553391  -0.707106781

     Calculation of q =    0.0000000   0.0000000   0.0000000

     phonons of Si mesh

     bravais-lattice index     =            0
     lattice parameter (alat)  =       7.3077  a.u.
     unit-cell volume          =     275.9486 (a.u.)^3
     number of atoms/cell      =            2
     number of atomic types    =            1
     kinetic-energy cut-off    =      30.0000  Ry
     charge density cut-off    =     240.0000  Ry
     convergence threshold     =      1.0E-16
     beta                      =       0.5000
     number of iterations used =            4
     Exchange-correlation= PBE
                           (   1   4   3   4   0   0   0)

     celldm(1)=    7.30771  celldm(2)=    0.00000  celldm(3)=    0.00000
     celldm(4)=    0.00000  celldm(5)=    0.00000  celldm(6)=    0.00000

     crystal axes: (cart. coord. in units of alat)
               a(1) = (  0.7071  0.7071  0.0000 )
               a(2) = (  0.7071  0.0000  0.7071 )
               a(3) = (  0.0000  0.7071  0.7071 )

     reciprocal axes: (cart. coord. in units 2 pi/alat)
               b(1) = (  0.7071  0.7071 -0.7071 )
               b(2) = (  0.7071 -0.7071  0.7071 )
               b(3) = ( -0.7071  0.7071  0.7071 )

     Atoms inside the unit cell:

     Cartesian axes

     site n.  atom      mass           positions (alat units)
        1     Si  28.0855   tau(    1) = (    0.00000    0.00000    0.00000  )
        2     Si  28.0855   tau(    2) = (    0.35355    0.35355    0.35355  )

     Computing dynamical matrix for
                    q = (   0.0000000   0.0000000   0.0000000 )

     49 Sym.Ops. (with q -> -q+G )

     G cutoff =  324.6487  (  17261 G-vectors)     FFT grid: ( 40, 40, 40)
     G cutoff =  162.3244  (   6183 G-vectors)  smooth grid: ( 32, 32, 32)
     number of k points=    29

     PseudoPot. # 1 for Si read from file:
     ./pseudo/Si.pbe-n-rrkjus_psl.1.0.0.UPF
     MD5 check sum: 0b0bb1205258b0d07b9f9672cf965d36
     Pseudo is Ultrasoft + core correction, Zval =  4.0
     Generated using "atomic" code by A. Dal Corso  v.5.1
     Using radial grid of 1141 points,  6 beta functions with:
                l(1) =   0
                l(2) =   0
                l(3) =   1
                l(4) =   1
                l(5) =   2
                l(6) =   2
     Q(r) pseudized with 0 coefficients

     Mode symmetry, O_h (m-3m)  point group:

     Electric field:
     Dielectric constant
     Born effective charges in two ways

     Atomic displacements:
     There are    2 irreducible representations

     Representation     1      3 modes -  To be done

[...]

     Alpha used in Ewald sum =   2.5000

     Electric Fields Calculation

      thresh= 1.000E-02 alpha_mix =  0.500 |ddv_scf|^2 =  1.969E-07

[...]

     End of electric fields calculation

          Dielectric constant in cartesian axis

          (      14.147436348       0.000000000       0.000000000 )
          (      -0.000000000      14.147436348      -0.000000000 )
          (       0.000000000      -0.000000000      14.147436348 )

          Effective charges (d Force / dE) in cartesian axis

           atom      1   Si
      Ex  (       -0.08864       -0.00000        0.00000 )
      Ey  (       -0.00000       -0.08864       -0.00000 )
      Ez  (       -0.00000       -0.00000       -0.08864 )
           atom      2   Si
      Ex  (       -0.08864       -0.00000        0.00000 )
      Ey  (       -0.00000       -0.08864       -0.00000 )
      Ez  (        0.00000       -0.00000       -0.08864 )

     Representation #   1 modes #   1   2   3

     Self-consistent Calculation

[...]

     End of self-consistent calculation

     Convergence has been achieved

[...]

     Number of q in the star =    1
     List of q in the star:
          1   0.000000000   0.000000000   0.000000000

          Dielectric constant in cartesian axis

          (      14.147436348       0.000000000       0.000000000 )
          (      -0.000000000      14.147436348      -0.000000000 )
          (       0.000000000      -0.000000000      14.147436348 )

          Effective charges (d Force / dE) in cartesian axis

[...]

          Effective charges (d P / du) in cartesian axis

           atom      1   Si
      Px  (       -0.08864        0.00000        0.00000 )
      Py  (        0.00000       -0.08864        0.00000 )
      Pz  (        0.00000        0.00000       -0.08864 )
           atom      2   Si
      Px  (       -0.08864        0.00000        0.00000 )
      Py  (        0.00000       -0.08864        0.00000 )
      Pz  (        0.00000        0.00000       -0.08864 )

     Diagonalizing the dynamical matrix

     q = (    0.000000000   0.000000000   0.000000000 )

     freq (    1) =      -0.384769 [THz] =     -12.834502 [cm-1]
     freq (    2) =      -0.384769 [THz] =     -12.834502 [cm-1]
     freq (    3) =      -0.384769 [THz] =     -12.834502 [cm-1]
     freq (    4) =      15.102194 [THz] =     503.754982 [cm-1]
     freq (    5) =      15.102194 [THz] =     503.754982 [cm-1]
     freq (    6) =      15.102194 [THz] =     503.754982 [cm-1]

     Mode symmetry, O_h (m-3m)  point group:

     freq (   1-   3) =        -12.8  [cm-1]   --> T_1u G_15  G_4- I
     freq (   4-   6) =        503.8  [cm-1]   --> T_2g G_25' G_5+ R

[...]

     Subspace diagonalization in iterative solution of the eigenvalue problem:
     a serial algorithm will be used

[...]

     Title:
     phonons of Si mesh

     bravais-lattice index     =            0
     lattice parameter (alat)  =       7.3077  a.u.
     unit-cell volume          =     275.9486 (a.u.)^3
     number of atoms/cell      =            2
     number of atomic types    =            1
     number of electrons       =         8.00
     number of Kohn-Sham states=            4
     kinetic-energy cutoff     =      30.0000  Ry
     charge density cutoff     =     240.0000  Ry
     Exchange-correlation= PBE
                           (   1   4   3   4   0   0   0)

[...]

     atomic species   valence    mass     pseudopotential
        Si             4.00    28.08550     Si( 1.00)

     48 Sym. Ops., with inversion, found

[...]

     site n.     atom                  positions (alat units)
         1           Si  tau(   1) = (   0.0000000   0.0000000   0.0000000  )
         2           Si  tau(   2) = (   0.3535534   0.3535534   0.3535534  )

     number of k points=   240

     Number of k-points >= 100: set verbosity='high' to print them.

     The potential is recalculated from file :
     ./_ph0/si.save/charge-density

     Starting wfcs are    8 atomic wfcs

     Band Structure Calculation
     Davidson diagonalization with overlap

     ethr =  1.25E-10,  avg # of iterations = 13.1

     End of band structure calculation

     Number of k-points >= 100: set verbosity='high' to print the bands.

     highest occupied level (ev):     5.9865

     Writing output data file ./_ph0/si.save/

[...]

      6 Sym.Ops. (no q -> -q+G )

[...]

     Mode symmetry, C_3v (3m)   point group:

[...]

     Representation #   1 mode #   1

[...]

     Mode symmetry, C_3v (3m)   point group:

     freq (   1-   2) =         93.9  [cm-1]   --> E    L_3
     freq (   3-   3) =        225.1  [cm-1]   --> A_1  L_1
     freq (   4-   4) =        474.9  [cm-1]   --> A_1  L_1
     freq (   5-   6) =        484.5  [cm-1]   --> E    L_3

[...]

     Mode symmetry, C_4v (4mm)  point group:

[...]

     Mode symmetry, C_4v (4mm)  point group:

     freq (   1-   2) =        126.2  [cm-1]   --> E    G_5 D_5
     freq (   3-   3) =        235.4  [cm-1]   --> A_1  G_1 D_1
     freq (   4-   5) =        462.3  [cm-1]   --> E    G_5 D_5
     freq (   6-   6) =        482.9  [cm-1]   --> B_2  G_4 D_2'

[...]

     Mode symmetry, C_s (m)     point group:

[...]

     Mode symmetry, C_s (m)     point group:

     freq (   1-   1) =        140.8  [cm-1]   --> A''
     freq (   2-   2) =        196.0  [cm-1]   --> A'
     freq (   3-   3) =        312.6  [cm-1]   --> A'
     freq (   4-   4) =        403.3  [cm-1]   --> A'
     freq (   5-   5) =        454.2  [cm-1]   --> A''
     freq (   6-   6) =        467.8  [cm-1]   --> A'

[...]

     Mode symmetry, C_2v (mm2)  point group:

[...]

     Representation #   6 mode #   6

[...]

     Mode symmetry, C_2v (mm2)  point group:

     freq (   1-   1) =        136.7  [cm-1]   --> B_2  D_4  S_4
     freq (   2-   2) =        192.6  [cm-1]   --> B_1  D_3  S_3
     freq (   3-   3) =        277.3  [cm-1]   --> A_1  D_1  S_1
     freq (   4-   4) =        409.7  [cm-1]   --> B_1  D_3  S_3
     freq (   5-   5) =        461.9  [cm-1]   --> A_2  D_2  S_2
     freq (   6-   6) =        476.2  [cm-1]   --> A_1  D_1  S_1

[...]

     17 Sym.Ops. (with q -> -q+G )

[...]

     Calculation of q =    0.0000000   0.3535534  -0.7071068

     Using Slab Decomposition

     Title:
     phonons of Si mesh

     bravais-lattice index     =            0
     lattice parameter (alat)  =       7.3077  a.u.
     unit-cell volume          =     275.9486 (a.u.)^3
     number of atoms/cell      =            2
     number of atomic types    =            1
     number of electrons       =         8.00
     number of Kohn-Sham states=            4
     kinetic-energy cutoff     =      30.0000  Ry
     charge density cutoff     =     240.0000  Ry
     Exchange-correlation= PBE
                           (   1   4   3   4   0   0   0)

[...]

     atomic species   valence    mass     pseudopotential
        Si             4.00    28.08550     Si( 1.00)

     48 Sym. Ops., with inversion, found

[...]

     site n.     atom                  positions (alat units)
         1           Si  tau(   1) = (   0.0000000   0.0000000   0.0000000  )
         2           Si  tau(   2) = (   0.3535534   0.3535534   0.3535534  )

     number of k points=   174

     Number of k-points >= 100: set verbosity='high' to print them.

     The potential is recalculated from file :
     ./_ph0/si.save/charge-density

     Starting wfcs are    8 atomic wfcs

     Band Structure Calculation
     Davidson diagonalization with overlap

     ethr =  1.25E-10,  avg # of iterations = 12.8

     End of band structure calculation

     Number of k-points >= 100: set verbosity='high' to print the bands.

     highest occupied level (ev):     5.9865

     Writing output data file ./_ph0/si.save/

     phonons of Si mesh

     bravais-lattice index     =            0
     lattice parameter (alat)  =       7.3077  a.u.
     unit-cell volume          =     275.9486 (a.u.)^3
     number of atoms/cell      =            2
     number of atomic types    =            1
     kinetic-energy cut-off    =      30.0000  Ry
     charge density cut-off    =     240.0000  Ry
     convergence threshold     =      1.0E-16
     beta                      =       0.5000
     number of iterations used =            4
     Exchange-correlation= PBE
                           (   1   4   3   4   0   0   0)

     celldm(1)=    7.30771  celldm(2)=    0.00000  celldm(3)=    0.00000
     celldm(4)=    0.00000  celldm(5)=    0.00000  celldm(6)=    0.00000

     crystal axes: (cart. coord. in units of alat)
               a(1) = (  0.7071  0.7071  0.0000 )
               a(2) = (  0.7071  0.0000  0.7071 )
               a(3) = (  0.0000  0.7071  0.7071 )

     reciprocal axes: (cart. coord. in units 2 pi/alat)
               b(1) = (  0.7071  0.7071 -0.7071 )
               b(2) = (  0.7071 -0.7071  0.7071 )
               b(3) = ( -0.7071  0.7071  0.7071 )

     Atoms inside the unit cell:

     Cartesian axes

     site n.  atom      mass           positions (alat units)
        1     Si  28.0855   tau(    1) = (    0.00000    0.00000    0.00000  )
        2     Si  28.0855   tau(    2) = (    0.35355    0.35355    0.35355  )

     Computing dynamical matrix for
                    q = (   0.0000000   0.3535534  -0.7071068 )

      8 Sym.Ops. (no q -> -q+G )

     G cutoff =  324.6487  (  17261 G-vectors)     FFT grid: ( 40, 40, 40)
     G cutoff =  162.3244  (   6183 G-vectors)  smooth grid: ( 32, 32, 32)
     number of k points=   174

     PseudoPot. # 1 for Si read from file:
     ./pseudo/Si.pbe-n-rrkjus_psl.1.0.0.UPF
     MD5 check sum: 0b0bb1205258b0d07b9f9672cf965d36
     Pseudo is Ultrasoft + core correction, Zval =  4.0
     Generated using "atomic" code by A. Dal Corso  v.5.1
     Using radial grid of 1141 points,  6 beta functions with:
                l(1) =   0
                l(2) =   0
                l(3) =   1
                l(4) =   1
                l(5) =   2
                l(6) =   2
     Q(r) pseudized with 0 coefficients

     Atomic displacements:
     There are    3 irreducible representations

[...]

     Representation     3      2 modes -  To be done

     Alpha used in Ewald sum =   2.5000

[...]

     Representation #   3 modes #   5   6

     Self-consistent Calculation

[...]

      thresh= 1.765E-09 alpha_mix =  0.500 |ddv_scf|^2 =  4.782E-17

     End of self-consistent calculation

     Convergence has been achieved

     Number of q in the star =    6
     List of q in the star:
          1   0.000000000   0.353553391  -0.707106781
          2   0.000000000  -0.353553391   0.707106781
          3  -0.353553391   0.000000000   0.707106781
          4   0.353553391   0.000000000   0.707106781
          5  -0.707106781   0.000000000   0.353553391
          6  -0.707106781   0.000000000  -0.353553391

     Diagonalizing the dynamical matrix

     q = (    0.000000000   0.353553391  -0.707106781 )

     freq (    1) =       6.017753 [THz] =     200.730632 [cm-1]
     freq (    2) =       6.017753 [THz] =     200.730632 [cm-1]
     freq (    3) =      10.343478 [THz] =     345.021294 [cm-1]
     freq (    4) =      10.343478 [THz] =     345.021294 [cm-1]
     freq (    5) =      13.587274 [THz] =     453.222682 [cm-1]
     freq (    6) =      13.587274 [THz] =     453.222682 [cm-1]

     General routines

     Parallel routines

     INITIALIZATION:

     DYNAMICAL MATRIX:

      General routines

   This run was terminated on:  13: 7:41  12May2023

   JOB DONE.