     Program PWSCF v.6.8 starts on 12May2023 at 23:10: 5

     Waiting for input...
     Reading input from standard input

     Current dimensions of program PWSCF are:
     Max number of different atomic species (ntypx) = 10
     Max number of k-points (npk) =  40000
     Max angular momentum in pseudopotentials (lmaxx) =  4
     file Al.pbe-n-kjpaw_psl.1.0.0.UPF: wavefunction(s)  3S 3P renormalized
     Message from routine setup:
     using ibrav=0 with symmetry is DISCOURAGED, use correct ibrav instead

     Subspace diagonalization in iterative solution of the eigenvalue problem:
     a serial algorithm will be used

     Using Slab Decomposition

     bravais-lattice index     =            0
     lattice parameter (alat)  =       5.8827  a.u.
     unit-cell volume          =     282.0993 (a.u.)^3
     number of atoms/cell      =            4
     number of atomic types    =            2
     number of electrons       =        16.00
     number of Kohn-Sham states=            8
     kinetic-energy cutoff     =      50.0000  Ry
     charge density cutoff     =     480.0000  Ry
     scf convergence threshold =      8.0E-10
     mixing beta               =       0.4000
     number of iterations used =            8  plain     mixing
     energy convergence thresh.=      4.0E-05
     force convergence thresh. =      1.0E-04
     press convergence thresh. =      5.0E-01
     Exchange-correlation= PBE
                           (   1   4   3   4   0   0   0)
     nstep                     =           50

     celldm(1)=   5.882717  celldm(2)=   0.000000  celldm(3)=   0.000000
     celldm(4)=   0.000000  celldm(5)=   0.000000  celldm(6)=   0.000000

     crystal axes: (cart. coord. in units of alat)
               a(1) = (   0.866025  -0.500000   0.000000 )
               a(2) = (   0.000000   1.000000   0.000000 )
               a(3) = (   0.000000   0.000000   1.600064 )

     reciprocal axes: (cart. coord. in units 2 pi/alat)
               b(1) = (  1.154701  0.000000  0.000000 )
               b(2) = (  0.577350  1.000000 -0.000000 )
               b(3) = ( -0.000000  0.000000  0.624975 )

     PseudoPot. # 1 for Al read from file:
     ./pseudo/Al.pbe-n-kjpaw_psl.1.0.0.UPF
     MD5 check sum: cfc449ca30b5f3223ec38ddd88ac046d
     Pseudo is Projector augmented-wave + core cor, Zval =  3.0
     Generated using "atomic" code by A. Dal Corso  v.5.1
     Shape of augmentation charge: PSQ
     Using radial grid of 1135 points,  6 beta functions with:
                l(1) =   0
                l(2) =   0
                l(3) =   1
                l(4) =   1
                l(5) =   2
                l(6) =   2
     Q(r) pseudized with 0 coefficients

     PseudoPot. # 2 for N  read from file:
     ./pseudo/N.pbe-n-radius_5.UPF
     MD5 check sum: 16739722b17309cd8fe442a2ace49922
     Pseudo is Ultrasoft + core correction, Zval =  5.0
     Generated using "atomic" code by A. Dal Corso  v.5.1
     Using radial grid of 1085 points,  4 beta functions with:
                l(1) =   0
                l(2) =   0
                l(3) =   1
                l(4) =   1
     Q(r) pseudized with 0 coefficients

     atomic species   valence    mass     pseudopotential
        Al             3.00    26.98154     Al( 1.00)
        N              5.00    14.00670     N ( 1.00)

     12 Sym. Ops. (no inversion) found ( 6 have fractional translation)

                                    s                        frac. trans.

      isym =  1     identity

 cryst.   s( 1) = (     1          0          0      )
                  (     0          1          0      )
                  (     0          0          1      )

 cart.    s( 1) = (  1.0000000  0.0000000  0.0000000 )
                  (  0.0000000  1.0000000  0.0000000 )
                  (  0.0000000  0.0000000  1.0000000 )

      isym =  2     180 deg rotation - cart. axis [0,0,1]

 cryst.   s( 2) = (    -1          0          0      )    f =(  0.0000000 )
                  (     0         -1          0      )       (  0.0000000 )
                  (     0          0          1      )       ( -0.5000000 )

 cart.    s( 2) = ( -1.0000000  0.0000000  0.0000000 )    f =(  0.0000000 )
                  (  0.0000000 -1.0000000  0.0000000 )       (  0.0000000 )
                  (  0.0000000  0.0000000  1.0000000 )       ( -0.8000321 )

      isym =  3      60 deg rotation - cryst. axis [0,0,1]

[...]

      isym =  7     inv. 180 deg rotation - cart. axis [0,1,0]

[...]

      isym =  9     inv. 180 deg rotation - cryst. axis [1,-1,0]

[...]

 cryst.   s(10) = (     0         -1          0      )
                  (    -1          0          0      )
                  (     0          0          1      )

 cart.    s(10) = ( -0.5000000 -0.8660254  0.0000000 )
                  ( -0.8660254  0.5000000  0.0000000 )
                  (  0.0000000  0.0000000  1.0000000 )

[...]

 cryst.   s(11) = (     0          1          0      )    f =(  0.0000000 )
                  (     1          0          0      )       (  0.0000000 )
                  (     0          0          1      )       ( -0.5000000 )

 cart.    s(11) = (  0.5000000  0.8660254  0.0000000 )    f =(  0.0000000 )
                  (  0.8660254 -0.5000000  0.0000000 )       (  0.0000000 )
                  (  0.0000000  0.0000000  1.0000000 )       ( -0.8000321 )

[...]

   Cartesian axes

     site n.     atom                  positions (alat units)
         1           Al  tau(   1) = (   0.2886751   0.5000000   0.0000000  )
         2           Al  tau(   2) = (   0.5773503   0.0000000   0.8000321  )
         3           N   tau(   3) = (   0.2886751   0.5000000   0.6080244  )
         4           N   tau(   4) = (   0.5773503   0.0000000   1.4080565  )

   Crystallographic axes

     site n.     atom                  positions (cryst. coord.)
         1           Al  tau(   1) = (  0.3333333  0.6666667  0.0000000  )
         2           Al  tau(   2) = (  0.6666667  0.3333333  0.5000000  )
         3           N   tau(   3) = (  0.3333333  0.6666667  0.3800000  )
         4           N   tau(   4) = (  0.6666667  0.3333333  0.8800000  )

     number of k points=    14
                       cart. coord. in units 2pi/alat
        k(    1) = (   0.0000000   0.0000000   0.0000000), wk =   0.0185185
        k(    2) = (   0.0000000   0.0000000   0.2083250), wk =   0.0370370
        k(    3) = (   0.0962250   0.1666667   0.0000000), wk =   0.1111111
        k(    4) = (   0.0962250   0.1666667   0.2083250), wk =   0.2222222
        k(    5) = (   0.1924501   0.3333333   0.0000000), wk =   0.1111111
        k(    6) = (   0.1924501   0.3333333   0.2083250), wk =   0.2222222
        k(    7) = (  -0.2886751  -0.5000000   0.0000000), wk =   0.0555556
        k(    8) = (  -0.2886751  -0.5000000   0.2083250), wk =   0.1111111
        k(    9) = (   0.2886751   0.1666667   0.0000000), wk =   0.1111111
        k(   10) = (   0.2886751   0.1666667   0.2083250), wk =   0.2222222
        k(   11) = (   0.3849002   0.3333333   0.0000000), wk =   0.2222222
        k(   12) = (   0.3849002   0.3333333   0.2083250), wk =   0.4444444
        k(   13) = (   0.5773503   0.3333333   0.0000000), wk =   0.0370370
        k(   14) = (   0.5773503   0.3333333   0.2083250), wk =   0.0740741

                       cryst. coord.
        k(    1) = (   0.0000000   0.0000000   0.0000000), wk =   0.0185185
        k(    2) = (   0.0000000   0.0000000   0.3333333), wk =   0.0370370
        k(    3) = (   0.0000000   0.1666667   0.0000000), wk =   0.1111111
        k(    4) = (   0.0000000   0.1666667   0.3333333), wk =   0.2222222
        k(    5) = (   0.0000000   0.3333333   0.0000000), wk =   0.1111111
        k(    6) = (   0.0000000   0.3333333   0.3333333), wk =   0.2222222
        k(    7) = (   0.0000000  -0.5000000   0.0000000), wk =   0.0555556
        k(    8) = (   0.0000000  -0.5000000   0.3333333), wk =   0.1111111
        k(    9) = (   0.1666667   0.1666667   0.0000000), wk =   0.1111111
        k(   10) = (   0.1666667   0.1666667   0.3333333), wk =   0.2222222
        k(   11) = (   0.1666667   0.3333333   0.0000000), wk =   0.2222222
        k(   12) = (   0.1666667   0.3333333   0.3333333), wk =   0.4444444
        k(   13) = (   0.3333333   0.3333333   0.0000000), wk =   0.0370370
        k(   14) = (   0.3333333   0.3333333   0.3333333), wk =   0.0740741

     Initial potential from superposition of free atoms

     starting charge   15.99540, renormalised to   16.00000
     Starting wfcs are   16 randomized atomic wfcs
     Checking if some PAW data can be deallocated...

     Self-consistent Calculation

     iteration #  1     ecut=    50.00 Ry     beta= 0.40
     Davidson diagonalization with overlap

     ethr =  1.00E-02,  avg # of iterations =  2.0

     total energy              =    -119.51147201 Ry
     estimated scf accuracy    <       1.22078112 Ry

[...]

     End of self-consistent calculation

          k = 0.0000 0.0000 0.0000 (  1725 PWs)   bands (ev):

    -8.0752  -5.9260   1.1084   6.2526   6.2526   6.9048   6.9048   7.0842

     occupation numbers
     1.0000   1.0000   1.0000   1.0000   1.0000   1.0000   1.0000   1.0000

[...]

          k =-0.2887-0.5000 0.0000 (  1654 PWs)   bands (ev):

[...]

     highest occupied level (ev):     7.0842

!    total energy              =    -119.79280720 Ry
     estimated scf accuracy    <          3.9E-10 Ry

     The total energy is the sum of the following terms:
     one-electron contribution =      -1.80949708 Ry
     hartree contribution      =      11.40996946 Ry
     xc contribution           =     -16.53391807 Ry
     ewald contribution        =     -43.48644819 Ry
     one-center paw contrib.   =     -69.37291332 Ry
      -> PAW hartree energy AE =       4.85552452 Ry
      -> PAW hartree energy PS =      -4.84626009 Ry
      -> PAW xc energy AE      =     -74.08339832 Ry
      -> PAW xc energy PS      =       4.70122057 Ry
      -> total E_H with PAW    =      11.41923389 Ry
      -> total E_XC with PAW   =     -85.91609583 Ry

     convergence has been achieved in  23 iterations

     Forces acting on atoms (cartesian axes, Ry/au):

     atom    1 type  1   force =    -0.00000000   -0.00000000   -0.00507492
     atom    2 type  1   force =     0.00000000    0.00000000   -0.00507492
     atom    3 type  2   force =     0.00000000    0.00000000    0.00507492
     atom    4 type  2   force =    -0.00000000   -0.00000000    0.00507492
     The non-local contrib.  to forces
     atom    1 type  1   force =     0.00000000    0.00000000   -0.01552698
     atom    2 type  1   force =     0.00000000    0.00000000   -0.01552698
     atom    3 type  2   force =     0.00000000    0.00000000    0.00943278
     atom    4 type  2   force =    -0.00000000   -0.00000000    0.00943278
     The ionic contribution  to forces
     atom    1 type  1   force =    -0.00000003    0.00000000   -0.01970861
     atom    2 type  1   force =     0.00000003   -0.00000000   -0.01970861
     atom    3 type  2   force =    -0.00000003    0.00000000    0.01970861
     atom    4 type  2   force =     0.00000003   -0.00000000    0.01970861
[...]

     new trust radius        =       0.0006970400 bohr
     new conv_thr            =            8.0E-12 Ry

     new unit-cell volume =    287.50464 a.u.^3 (    42.60379 Ang^3 )
     density =      3.19514 g/cm^3

[...]

ATOMIC_POSITIONS (angstrom)
Al            0.9037450060        1.5653322571       -0.0037653424
Al            1.8074900119        0.0000000000        2.5058927507
N             0.9037450060        1.5653322571        1.9111054932
N             1.8074900119        0.0000000000        4.4207635863

     Writing output data file ./aiida.save/
     NEW-OLD atomic charge density approx. for the potential
     extrapolated charge   16.00056, renormalised to   16.00000

[...]

     Threshold (ethr) on eigenvalues was too large:
     Diagonalizing with lowered threshold

     Davidson diagonalization with overlap

[...]

     Total force =     0.000038     Total SCF correction =     0.000005
     SCF correction compared to forces is large: reduce conv_thr to get better values

[...]

     Energy error            =      3.7E-07 Ry
     Gradient error          =      1.9E-05 Ry/Bohr
     Cell gradient error     =      3.2E-01 kbar

     bfgs converged in   5 scf cycles and   4 bfgs steps
     (criteria: energy <  4.0E-05 Ry, force <  1.0E-04Ry/Bohr, cell <  5.0E-01kbar)

     End of BFGS Geometry Optimization

     Final enthalpy           =    -119.7936000743 Ry

     File ./aiida.bfgs deleted, as requested
Begin final coordinates
     new unit-cell volume =    287.50464 a.u.^3 (    42.60379 Ang^3 )
     density =      3.19514 g/cm^3

CELL_PARAMETERS (angstrom)
   2.711235018  -1.565332257   0.000000000
  -0.000000000   3.130664514   0.000000000
   0.000000000   0.000000000   5.019316186

ATOMIC_POSITIONS (angstrom)
Al            0.9037450060        1.5653322571       -0.0037653424
Al            1.8074900119        0.0000000000        2.5058927507
N             0.9037450060        1.5653322571        1.9111054932
N             1.8074900119        0.0000000000        4.4207635863
End final coordinates

     Writing output data file ./aiida.save/

     Final scf calculation at the relaxed structure.
     The G-vectors are recalculated for the final unit cell
     Results may differ from those at the preceding step.

     Using Slab Decomposition

     bravais-lattice index     =            0
     lattice parameter (alat)  =       5.8827  a.u.
     unit-cell volume          =     287.5046 (a.u.)^3
     number of atoms/cell      =            4
     number of atomic types    =            2
     number of electrons       =        16.00
     number of Kohn-Sham states=            8
     kinetic-energy cutoff     =      50.0000  Ry
     charge density cutoff     =     480.0000  Ry
     scf convergence threshold =      8.0E-12
     mixing beta               =       0.4000
     number of iterations used =            8  plain     mixing
     press convergence thresh. =      5.0E-01
     Exchange-correlation= PBE
                           (   1   4   3   4   0   0   0)

     celldm(1)=   5.882717  celldm(2)=   0.000000  celldm(3)=   0.000000
     celldm(4)=   0.000000  celldm(5)=   0.000000  celldm(6)=   0.000000

     crystal axes: (cart. coord. in units of alat)
               a(1) = (   0.870940  -0.502837   0.000000 )
               a(2) = (  -0.000000   1.005674   0.000000 )
               a(3) = (   0.000000   0.000000   1.612373 )

     reciprocal axes: (cart. coord. in units 2 pi/alat)
               b(1) = (  1.148185  0.000000 -0.000000 )
               b(2) = (  0.574093  0.994358 -0.000000 )
               b(3) = ( -0.000000 -0.000000  0.620204 )

     PseudoPot. # 1 for Al read from file:
     ./pseudo/Al.pbe-n-kjpaw_psl.1.0.0.UPF
     MD5 check sum: cfc449ca30b5f3223ec38ddd88ac046d
     Pseudo is Projector augmented-wave + core cor, Zval =  3.0
     Generated using "atomic" code by A. Dal Corso  v.5.1
     Shape of augmentation charge: PSQ
     Using radial grid of 1135 points,  6 beta functions with:
                l(1) =   0
                l(2) =   0
                l(3) =   1
                l(4) =   1
                l(5) =   2
                l(6) =   2
     Q(r) pseudized with 0 coefficients

     PseudoPot. # 2 for N  read from file:
     ./pseudo/N.pbe-n-radius_5.UPF
     MD5 check sum: 16739722b17309cd8fe442a2ace49922
     Pseudo is Ultrasoft + core correction, Zval =  5.0
     Generated using "atomic" code by A. Dal Corso  v.5.1
     Using radial grid of 1085 points,  4 beta functions with:
                l(1) =   0
                l(2) =   0
                l(3) =   1
                l(4) =   1
     Q(r) pseudized with 0 coefficients

     atomic species   valence    mass     pseudopotential
        Al             3.00    26.98154     Al( 1.00)
        N              5.00    14.00670     N ( 1.00)

     12 Sym. Ops. (no inversion) found ( 6 have fractional translation)

                                    s                        frac. trans.

      isym =  1     identity

[...]

      isym =  2     180 deg rotation - cart. axis [0,0,1]

[...]

      isym =  6     120 deg rotation - cryst. axis [0,0,-1]

[...]

      isym =  8     inv. 180 deg rotation - cart. axis [1,0,0]

 cryst.   s( 8) = (    -1         -1          0      )    f =(  0.0000000 )
                  (     0          1          0      )       (  0.0000000 )
                  (     0          0          1      )       ( -0.5000000 )

 cart.    s( 8) = ( -1.0000000  0.0000000  0.0000000 )    f =( -0.0000000 )
                  (  0.0000000  1.0000000  0.0000000 )       ( -0.0000000 )
                  (  0.0000000  0.0000000  1.0000000 )       ( -0.8061863 )

[...]

 cryst.   s( 9) = (    -1          0          0      )
                  (     1          1          0      )
                  (     0          0          1      )

 cart.    s( 9) = ( -0.5000000  0.8660254  0.0000000 )
                  (  0.8660254  0.5000000  0.0000000 )
                  (  0.0000000  0.0000000  1.0000000 )

[...]

 cryst.   s(10) = (     0         -1          0      )
                  (    -1          0          0      )
                  (     0          0          1      )

 cart.    s(10) = ( -0.5000000 -0.8660254  0.0000000 )
                  ( -0.8660254  0.5000000  0.0000000 )
                  (  0.0000000  0.0000000  1.0000000 )

[...]

      isym = 12     inv. 180 deg rotation - cryst. axis [1,1,0]

 cryst.   s(12) = (     1          0          0      )    f =(  0.0000000 )
                  (    -1         -1          0      )       (  0.0000000 )
                  (     0          0          1      )       ( -0.5000000 )

 cart.    s(12) = (  0.5000000 -0.8660254  0.0000000 )    f =( -0.0000000 )
                  ( -0.8660254 -0.5000000  0.0000000 )       ( -0.0000000 )
                  (  0.0000000  0.0000000  1.0000000 )       ( -0.8061863 )

   Cartesian axes

     site n.     atom                  positions (alat units)
         1           Al  tau(   1) = (   0.2903132   0.5028372  -0.0012096  )
         2           Al  tau(   2) = (   0.5806264   0.0000000   0.8049768  )
         3           N   tau(   3) = (   0.2903132   0.5028372   0.6139112  )
         4           N   tau(   4) = (   0.5806264   0.0000000   1.4200975  )

   Crystallographic axes

     site n.     atom                  positions (cryst. coord.)
         1           Al  tau(   1) = (  0.3333333  0.6666667 -0.0007502  )
         2           Al  tau(   2) = (  0.6666667  0.3333333  0.4992498  )
         3           N   tau(   3) = (  0.3333333  0.6666667  0.3807502  )
         4           N   tau(   4) = (  0.6666667  0.3333333  0.8807502  )

     number of k points=    14
                       cart. coord. in units 2pi/alat
        k(    1) = (   0.0000000   0.0000000   0.0000000), wk =   0.0185185
        k(    2) = (  -0.0000000  -0.0000000   0.2067347), wk =   0.0370370
        k(    3) = (   0.0956821   0.1657263  -0.0000000), wk =   0.1111111
        k(    4) = (   0.0956821   0.1657263   0.2067347), wk =   0.2222222
        k(    5) = (   0.1913642   0.3314525  -0.0000000), wk =   0.1111111
        k(    6) = (   0.1913642   0.3314525   0.2067347), wk =   0.2222222
        k(    7) = (  -0.2870463  -0.4971788   0.0000000), wk =   0.0555556
        k(    8) = (  -0.2870463  -0.4971788   0.2067347), wk =   0.1111111
        k(    9) = (   0.2870463   0.1657263  -0.0000000), wk =   0.1111111
        k(   10) = (   0.2870463   0.1657263   0.2067347), wk =   0.2222222
        k(   11) = (   0.3827284   0.3314525  -0.0000000), wk =   0.2222222
        k(   12) = (   0.3827284   0.3314525   0.2067347), wk =   0.4444444
        k(   13) = (   0.5740926   0.3314525  -0.0000000), wk =   0.0370370
        k(   14) = (   0.5740926   0.3314525   0.2067347), wk =   0.0740741

                       cryst. coord.
        k(    1) = (   0.0000000   0.0000000   0.0000000), wk =   0.0185185
        k(    2) = (   0.0000000   0.0000000   0.3333333), wk =   0.0370370
        k(    3) = (   0.0000000   0.1666667   0.0000000), wk =   0.1111111
        k(    4) = (   0.0000000   0.1666667   0.3333333), wk =   0.2222222
        k(    5) = (   0.0000000   0.3333333   0.0000000), wk =   0.1111111
        k(    6) = (   0.0000000   0.3333333   0.3333333), wk =   0.2222222
        k(    7) = (  -0.0000000  -0.5000000   0.0000000), wk =   0.0555556
        k(    8) = (  -0.0000000  -0.5000000   0.3333333), wk =   0.1111111
        k(    9) = (   0.1666667   0.1666667   0.0000000), wk =   0.1111111
        k(   10) = (   0.1666667   0.1666667   0.3333333), wk =   0.2222222
        k(   11) = (   0.1666667   0.3333333   0.0000000), wk =   0.2222222
        k(   12) = (   0.1666667   0.3333333   0.3333333), wk =   0.4444444
        k(   13) = (   0.3333333   0.3333333   0.0000000), wk =   0.0370370
        k(   14) = (   0.3333333   0.3333333   0.3333333), wk =   0.0740741

     Initial potential from superposition of free atoms

     starting charge   15.99540, renormalised to   16.00000
     Starting wfcs are   16 randomized atomic wfcs
     Checking if some PAW data can be deallocated...

     Self-consistent Calculation

[...]

     total energy              =    -119.79365014 Ry
     estimated scf accuracy    <          3.0E-11 Ry

     iteration # 34     ecut=    50.00 Ry     beta= 0.40
     Davidson diagonalization with overlap

     ethr =  1.88E-13,  avg # of iterations =  2.0

     End of self-consistent calculation

[...]

          k =-0.2870-0.4972 0.2067 (  1714 PWs)   bands (ev):

[...]

          k = 0.5741 0.3315 0.2067 (  1704 PWs)   bands (ev):

[...]

     occupation numbers
     1.0000   1.0000   1.0000   1.0000   1.0000   1.0000   1.0000   1.0000

     highest occupied level (ev):     6.9033

!    total energy              =    -119.79365014 Ry
     estimated scf accuracy    <          2.8E-12 Ry

     The total energy is the sum of the following terms:
     one-electron contribution =      -2.21297149 Ry
     hartree contribution      =      11.48237427 Ry
     xc contribution           =     -16.48371750 Ry
     ewald contribution        =     -43.21313419 Ry
     one-center paw contrib.   =     -69.36620123 Ry
      -> PAW hartree energy AE =       4.62190311 Ry
      -> PAW hartree energy PS =      -4.61288180 Ry
      -> PAW xc energy AE      =     -73.98427864 Ry
      -> PAW xc energy PS      =       4.60905610 Ry
      -> total E_H with PAW    =      11.49139559 Ry
      -> total E_XC with PAW   =     -85.85894005 Ry

     convergence has been achieved in  34 iterations

     Forces acting on atoms (cartesian axes, Ry/au):

     atom    1 type  1   force =    -0.00000000   -0.00000000    0.00001909
     atom    2 type  1   force =    -0.00000000    0.00000000    0.00001909
     atom    3 type  2   force =    -0.00000000   -0.00000000   -0.00001909
     atom    4 type  2   force =     0.00000000    0.00000000   -0.00001909
     The non-local contrib.  to forces
     atom    1 type  1   force =     0.00000000    0.00000000   -0.00838037
     atom    2 type  1   force =    -0.00000000    0.00000000   -0.00838037
     atom    3 type  2   force =     0.00000000    0.00000000    0.00346924
     atom    4 type  2   force =    -0.00000000   -0.00000000    0.00346924
     The ionic contribution  to forces
     atom    1 type  1   force =    -0.00000003    0.00000000    0.00212192
     atom    2 type  1   force =     0.00000003   -0.00000000    0.00212192
     atom    3 type  2   force =    -0.00000003    0.00000000   -0.00212192
     atom    4 type  2   force =     0.00000003   -0.00000000   -0.00212192
     The local contribution  to forces
     atom    1 type  1   force =     0.00000002   -0.00000000    0.00512979
     atom    2 type  1   force =    -0.00000002    0.00000000    0.00512979
     atom    3 type  2   force =     0.00000001   -0.00000000   -0.00134197
     atom    4 type  2   force =    -0.00000001    0.00000000   -0.00134197
     The core correction contribution to forces
     atom    1 type  1   force =     0.00000000   -0.00000000    0.00114775
     atom    2 type  1   force =    -0.00000000    0.00000000    0.00114775
     atom    3 type  2   force =     0.00000000   -0.00000000   -0.00002453
     atom    4 type  2   force =    -0.00000000   -0.00000000   -0.00002453
     The Hubbard contrib.    to forces
     atom    1 type  1   force =     0.00000000    0.00000000    0.00000000
     atom    2 type  1   force =     0.00000000    0.00000000    0.00000000
     atom    3 type  2   force =     0.00000000    0.00000000    0.00000000
     atom    4 type  2   force =     0.00000000    0.00000000    0.00000000
     The SCF correction term to forces
     atom    1 type  1   force =    -0.00000000   -0.00000000    0.00000000
     atom    2 type  1   force =     0.00000000    0.00000000    0.00000000
     atom    3 type  2   force =     0.00000000   -0.00000000    0.00000010
     atom    4 type  2   force =    -0.00000000    0.00000000    0.00000010

     Total force =     0.000038     Total SCF correction =     0.000000

     Computing stress (Cartesian axis) and pressure

          total   stress  (Ry/bohr**3)                   (kbar)     P=        0.04
   0.00000117  -0.00000000   0.00000000            0.17       -0.00        0.00
  -0.00000000   0.00000117  -0.00000000           -0.00        0.17       -0.00
   0.00000000   0.00000000  -0.00000149            0.00        0.00       -0.22

     kinetic stress (kbar)   9305.39     -0.00     -0.00
                               -0.00   9305.39     -0.00
                               -0.00     -0.00   9344.65

     local   stress (kbar)  -4815.13     -0.00      0.00
                               -0.00  -4815.13      0.00
                                0.00      0.00  -5208.19

     nonloc. stress (kbar)   3458.55     -0.00      0.00
                               -0.00   3458.55      0.00
                                0.00      0.00   3430.14

     hartree stress (kbar)   1898.04     -0.00      0.00
                               -0.00   1898.04     -0.00
                                0.00     -0.00   2079.00

     exc-cor stress (kbar)  -1016.56      0.00     -0.00
                                0.00  -1016.56     -0.00
                               -0.00     -0.00  -1016.49

     corecor stress (kbar)  -1394.43      0.00      0.00
                                0.00  -1394.43      0.00
                                0.00      0.00  -1390.22

     ewald   stress (kbar)  -7435.69      0.00      0.00
                                0.00  -7435.69     -0.00
                                0.00     -0.00  -7239.11

     hubbard stress (kbar)      0.00      0.00      0.00
                                0.00      0.00      0.00
                                0.00      0.00      0.00

     DFT-D   stress (kbar)      0.00      0.00      0.00
                                0.00      0.00      0.00
                                0.00      0.00      0.00

     XDM     stress (kbar)      0.00      0.00      0.00
                                0.00      0.00      0.00
                                0.00      0.00      0.00

     dft-nl  stress (kbar)      0.00      0.00      0.00
                                0.00      0.00      0.00
                                0.00      0.00      0.00

     TS-vdW  stress (kbar)      0.00      0.00      0.00
                                0.00      0.00      0.00
                                0.00      0.00      0.00

[...]

                                0.00      0.00      0.00

     Writing output data file ./aiida.save/

     General routines

     Parallel routines

     PAW routines

   This run was terminated on:  23:16: 1  12May2023

   JOB DONE.