     Program PHONON v.6.8 starts on 12May2023 at 23:39:49

     R & G space division:  proc/nbgrp/npool/nimage =       4

     Reading input from ph.aln.in

     Reading xml data from directory:

     ./aln.save/
     file Al.pbe-n-kjpaw_psl.1.0.0.UPF: wavefunction(s)  3S 3P renormalized

     IMPORTANT: XC functional enforced from input :
     Exchange-correlation= PBE
                           (   1   4   3   4   0   0   0)
     Any further DFT definition will be discarded
     Please, verify this is what you really want

     Using Slab Decomposition

     Reading collected, re-writing distributed wavefunctions

     Dynamical matrices for ( 2, 2, 1)  uniform grid of q-points
     (   2 q-points):
       N         xq(1)         xq(2)         xq(3)
       1   0.000000000   0.000000000   0.000000000
       2  -0.288675134  -0.500000003   0.000000000

     Calculation of q =   -0.2886751  -0.5000000   0.0000000

     Subspace diagonalization in iterative solution of the eigenvalue problem:
     a serial algorithm will be used

[...]

     Title:
     phonons of Si mesh

     bravais-lattice index     =            0
     lattice parameter (alat)  =       5.9161  a.u.
     unit-cell volume          =     287.5046 (a.u.)^3
     number of atoms/cell      =            4
     number of atomic types    =            2
     number of electrons       =        16.00
     number of Kohn-Sham states=            8
     kinetic-energy cutoff     =      50.0000  Ry
     charge density cutoff     =     480.0000  Ry
     Exchange-correlation= PBE
                           (   1   4   3   4   0   0   0)

     celldm(1)=   5.916099  celldm(2)=   0.000000  celldm(3)=   0.000000
     celldm(4)=   0.000000  celldm(5)=   0.000000  celldm(6)=   0.000000

     crystal axes: (cart. coord. in units of alat)
               a(1) = (   0.866025  -0.500000   0.000000 )
               a(2) = (   0.000000   1.000000   0.000000 )
               a(3) = (   0.000000   0.000000   1.603275 )

     reciprocal axes: (cart. coord. in units 2 pi/alat)
               b(1) = (  1.154701  0.000000  0.000000 )
               b(2) = (  0.577350  1.000000 -0.000000 )
               b(3) = ( -0.000000  0.000000  0.623723 )

     PseudoPot. # 1 for Al read from file:
     ./pseudo/Al.pbe-n-kjpaw_psl.1.0.0.UPF
     MD5 check sum: cfc449ca30b5f3223ec38ddd88ac046d
     Pseudo is Projector augmented-wave + core cor, Zval =  3.0
     Generated using "atomic" code by A. Dal Corso  v.5.1
     Shape of augmentation charge: PSQ
     Using radial grid of 1135 points,  6 beta functions with:
                l(1) =   0
                l(2) =   0
                l(3) =   1
                l(4) =   1
                l(5) =   2
                l(6) =   2
     Q(r) pseudized with 0 coefficients

     PseudoPot. # 2 for N  read from file:
     ./pseudo/N.pbe-n-radius_5.UPF
     MD5 check sum: 16739722b17309cd8fe442a2ace49922
     Pseudo is Ultrasoft + core correction, Zval =  5.0
     Generated using "atomic" code by A. Dal Corso  v.5.1
     Using radial grid of 1085 points,  4 beta functions with:
                l(1) =   0
                l(2) =   0
                l(3) =   1
                l(4) =   1
     Q(r) pseudized with 0 coefficients

     atomic species   valence    mass     pseudopotential
        Al             3.00    26.98154     Al( 1.00)
        N              5.00    14.00670     N ( 1.00)

     12 Sym. Ops. (no inversion) found

   Cartesian axes

     site n.     atom                  positions (alat units)
         1           Al  tau(   1) = (   0.2886751   0.5000000  -0.0012027  )
         2           Al  tau(   2) = (   0.5773503   0.0000000   0.8004348  )
         3           N   tau(   3) = (   0.2886751   0.5000000   0.6104472  )
         4           N   tau(   4) = (   0.5773503   0.0000000   1.4120847  )

     number of k points=    52
                       cart. coord. in units 2pi/alat
        k(    1) = (   0.0000000   0.0000000   0.0000000), wk =   0.0185185
        k(    2) = (  -0.2886751  -0.5000000   0.0000000), wk =   0.0000000
        k(    3) = (   0.0000000   0.0000000   0.2079078), wk =   0.0370370
        k(    4) = (  -0.2886751  -0.5000000   0.2079078), wk =   0.0000000
        k(    5) = (   0.0962250   0.1666667   0.0000000), wk =   0.0370370
        k(    6) = (  -0.1924501  -0.3333333   0.0000000), wk =   0.0000000
        k(    7) = (   0.0962250   0.1666667   0.2079078), wk =   0.0740741
        k(    8) = (  -0.1924501  -0.3333333   0.2079078), wk =   0.0000000
        k(    9) = (   0.1924501   0.3333333   0.0000000), wk =   0.0370370
        k(   10) = (  -0.0962250  -0.1666667   0.0000000), wk =   0.0000000
        k(   11) = (   0.1924501   0.3333333   0.2079078), wk =   0.0740741
        k(   12) = (  -0.0962250  -0.1666667   0.2079078), wk =   0.0000000
        k(   13) = (  -0.2886751  -0.5000000   0.0000000), wk =   0.0185185
        k(   14) = (  -0.5773503  -1.0000000   0.0000000), wk =   0.0000000
        k(   15) = (  -0.2886751  -0.5000000   0.2079078), wk =   0.0370370
        k(   16) = (  -0.5773503  -1.0000000   0.2079078), wk =   0.0000000
        k(   17) = (   0.2886751   0.1666667   0.0000000), wk =   0.0740741
        k(   18) = (   0.0000000  -0.3333333   0.0000000), wk =   0.0000000
        k(   19) = (   0.2886751   0.1666667   0.2079078), wk =   0.1481481
        k(   20) = (   0.0000000  -0.3333333   0.2079078), wk =   0.0000000
        k(   21) = (   0.3849002   0.3333333   0.0000000), wk =   0.0740741
        k(   22) = (   0.0962250  -0.1666667   0.0000000), wk =   0.0000000
        k(   23) = (   0.3849002   0.3333333   0.2079078), wk =   0.1481481
        k(   24) = (   0.0962250  -0.1666667   0.2079078), wk =   0.0000000
        k(   25) = (   0.5773503   0.3333333   0.0000000), wk =   0.0370370
        k(   26) = (   0.2886751  -0.1666667   0.0000000), wk =   0.0000000
        k(   27) = (   0.5773503   0.3333333   0.2079078), wk =   0.0740741
        k(   28) = (   0.2886751  -0.1666667   0.2079078), wk =   0.0000000
        k(   29) = (  -0.1924501   0.0000000   0.0000000), wk =   0.0740741
        k(   30) = (  -0.4811252  -0.5000000   0.0000000), wk =   0.0000000
        k(   31) = (  -0.1924501   0.0000000   0.2079078), wk =   0.1481481
        k(   32) = (  -0.4811252  -0.5000000   0.2079078), wk =   0.0000000
        k(   33) = (  -0.3849002   0.0000000   0.0000000), wk =   0.0740741
        k(   34) = (  -0.6735753  -0.5000000   0.0000000), wk =   0.0000000
        k(   35) = (  -0.3849002   0.0000000   0.2079078), wk =   0.1481481
        k(   36) = (  -0.6735753  -0.5000000   0.2079078), wk =   0.0000000
        k(   37) = (   0.5773503  -0.0000000   0.0000000), wk =   0.0370370
        k(   38) = (   0.2886751  -0.5000000   0.0000000), wk =   0.0000000
        k(   39) = (   0.5773503  -0.0000000   0.2079078), wk =   0.0740741
        k(   40) = (   0.2886751  -0.5000000   0.2079078), wk =   0.0000000
        k(   41) = (  -0.2886751   0.1666667   0.0000000), wk =   0.0370370
        k(   42) = (  -0.5773503  -0.3333333   0.0000000), wk =   0.0000000
        k(   43) = (  -0.2886751   0.1666667   0.2079078), wk =   0.0740741
        k(   44) = (  -0.5773503  -0.3333333   0.2079078), wk =   0.0000000
        k(   45) = (  -0.4811252   0.1666667   0.0000000), wk =   0.0740741
        k(   46) = (  -0.7698004  -0.3333333   0.0000000), wk =   0.0000000
        k(   47) = (   0.0962250  -0.5000000   0.0000000), wk =   0.0740741
        k(   48) = (  -0.1924501  -1.0000000   0.0000000), wk =   0.0000000
        k(   49) = (  -0.4811252   0.1666667   0.2079078), wk =   0.1481481
        k(   50) = (  -0.7698004  -0.3333333   0.2079078), wk =   0.0000000
        k(   51) = (   0.0962250  -0.5000000   0.2079078), wk =   0.1481481
        k(   52) = (  -0.1924501  -1.0000000   0.2079078), wk =   0.0000000

     The potential is recalculated from file :
     ./_ph0/aln.save/charge-density

     Starting wfcs are   16 atomic wfcs
     Checking if some PAW data can be deallocated...

     Band Structure Calculation
     Davidson diagonalization with overlap

     ethr =  6.25E-11,  avg # of iterations = 13.5

     End of band structure calculation

          k = 0.0000 0.0000 0.0000 (  1737 PWs)   bands (ev):

    -8.1603  -6.0790   0.9979   6.0599   6.0599   6.7022   6.7022   6.9032

          k =-0.2887-0.5000 0.0000 (  1694 PWs)   bands (ev):

[...]

     highest occupied level (ev):     6.9032

     Writing output data file ./_ph0/aln.save/

     phonons of Si mesh

     bravais-lattice index     =            0
     lattice parameter (alat)  =       5.9161  a.u.
     unit-cell volume          =     287.5046 (a.u.)^3
     number of atoms/cell      =            4
     number of atomic types    =            2
     kinetic-energy cut-off    =      50.0000  Ry
     charge density cut-off    =     480.0000  Ry
     convergence threshold     =      1.0E-16
     beta                      =       0.5000
     number of iterations used =            4
     Exchange-correlation= PBE
                           (   1   4   3   4   0   0   0)

[...]

     Atoms inside the unit cell:

[...]

     site n.  atom      mass           positions (alat units)
        1     Al  26.9815   tau(    1) = (    0.28868    0.50000   -0.00120  )
        2     Al  26.9815   tau(    2) = (    0.57735    0.00000    0.80043  )
        3     N   14.0067   tau(    3) = (    0.28868    0.50000    0.61045  )
        4     N   14.0067   tau(    4) = (    0.57735    0.00000    1.41208  )

     Computing dynamical matrix for
                    q = (  -0.2886751  -0.5000000   0.0000000 )

      5 Sym.Ops. (with q -> -q+G )

     G cutoff =  425.5517  (  12768 G-vectors)     FFT grid: ( 45, 45, 72)
     G cutoff =  177.3132  (   3423 G-vectors)  smooth grid: ( 27, 27, 48)
     number of k points=    52

[...]

     Mode symmetry, C_2v (mm2)  point group:

     Atomic displacements:
     There are   12 irreducible representations

     Representation     1      1 modes -  To be done

[...]

     Alpha used in Ewald sum =   2.8000

     Representation #   1 mode #   1

     Self-consistent Calculation

      thresh= 1.000E-02 alpha_mix =  0.500 |ddv_scf|^2 =  1.826E-05

[...]

     End of self-consistent calculation

     Convergence has been achieved

[...]

     Number of q in the star =    3
     List of q in the star:
          1  -0.288675134  -0.500000003   0.000000000
          2   0.577350268  -0.000000000   0.000000000
          3  -0.288675134   0.500000003   0.000000000

     Diagonalizing the dynamical matrix

     q = (   -0.288675134  -0.500000003   0.000000000 )

     freq (    1) =       6.699655 [THz] =     223.476426 [cm-1]
     freq (    2) =       8.985895 [THz] =     299.737187 [cm-1]
     freq (    3) =      10.087728 [THz] =     336.490384 [cm-1]
     freq (    4) =      11.833407 [THz] =     394.719981 [cm-1]
     freq (    5) =      14.776520 [THz] =     492.891668 [cm-1]
     freq (    6) =      15.285174 [THz] =     509.858516 [cm-1]
     freq (    7) =      18.638098 [THz] =     621.700018 [cm-1]
     freq (    8) =      19.218358 [THz] =     641.055418 [cm-1]
[...]
     freq (   10) =      19.751547 [THz] =     658.840680 [cm-1]
     freq (   11) =      21.374437 [THz] =     712.974473 [cm-1]
     freq (   12) =      21.949301 [THz] =     732.149862 [cm-1]

[...]

     freq (   1-   1) =        223.5  [cm-1]   --> A_2  D_2  S_2
     freq (   2-   2) =        299.7  [cm-1]   --> B_1  D_3  S_3
     freq (   3-   3) =        336.5  [cm-1]   --> B_2  D_4  S_4
     freq (   4-   4) =        394.7  [cm-1]   --> A_1  D_1  S_1
     freq (   5-   5) =        492.9  [cm-1]   --> B_1  D_3  S_3
     freq (   6-   6) =        509.9  [cm-1]   --> A_1  D_1  S_1
     freq (   7-   7) =        621.7  [cm-1]   --> B_1  D_3  S_3
     freq (   8-   8) =        641.1  [cm-1]   --> A_2  D_2  S_2
     freq (   9-   9) =        656.2  [cm-1]   --> B_2  D_4  S_4
     freq (  10-  10) =        658.8  [cm-1]   --> A_1  D_1  S_1
     freq (  11-  11) =        713.0  [cm-1]   --> B_1  D_3  S_3
     freq (  12-  12) =        732.1  [cm-1]   --> A_1  D_1  S_1

     General routines

     Parallel routines

     INITIALIZATION:

     DYNAMICAL MATRIX:

[...]

   This run was terminated on:  23:48:11  12May2023

   JOB DONE.

     Program PHONON v.6.8 starts on 13May2023 at  0: 2:10

     R & G space division:  proc/nbgrp/npool/nimage =       4

     Reading input from ph.aln.in

     Reading xml data from directory:

     ./aln.save/
     file Al.pbe-n-kjpaw_psl.1.0.0.UPF: wavefunction(s)  3S 3P renormalized

     IMPORTANT: XC functional enforced from input :
     Exchange-correlation= PBE
                           (   1   4   3   4   0   0   0)
     Any further DFT definition will be discarded
     Please, verify this is what you really want

[...]

     Reading collected, re-writing distributed wavefunctions

     Dynamical matrices for ( 2, 2, 1)  uniform grid of q-points
     (   2 q-points):
       N         xq(1)         xq(2)         xq(3)
       1   0.000000000   0.000000000   0.000000000
       2  -0.288675134  -0.500000003   0.000000000

[...]

     Mode symmetry, C_6v (6mm)  point group:

     Electric field:
     Dielectric constant
     Born effective charges in two ways

[...]

     Electric Fields Calculation

[...]

     End of electric fields calculation

          Dielectric constant in cartesian axis

          (       4.522745161      -0.000000000       0.000000000 )
          (      -0.000000000       4.522745208       0.000000000 )
          (      -0.000000000      -0.000000000       4.791824980 )

          Effective charges (d Force / dE) in cartesian axis

           atom      1   Al
      Ex  (        2.52309        0.00000        0.00000 )
      Ey  (        0.00000        2.52309       -0.00000 )
      Ez  (        0.00000        0.00000        2.68108 )
           atom      2   Al
      Ex  (        2.52309        0.00000        0.00000 )
      Ey  (        0.00000        2.52309        0.00000 )
      Ez  (        0.00000        0.00000        2.68108 )
           atom      3   N
      Ex  (       -2.52526        0.00000       -0.00000 )
      Ey  (        0.00000       -2.52526       -0.00000 )
      Ez  (       -0.00000        0.00000       -2.69392 )
           atom      4   N
      Ex  (       -2.52526       -0.00000       -0.00000 )
      Ey  (        0.00000       -2.52526       -0.00000 )
      Ez  (       -0.00000       -0.00000       -2.69392 )

[...]

     Representation #   5 modes #   5   6

[...]

     Representation #   8 modes #  11  12

[...]

          Dielectric constant in cartesian axis

          (       4.522745161      -0.000000000       0.000000000 )
          (      -0.000000000       4.522745208       0.000000000 )
          (      -0.000000000      -0.000000000       4.791824980 )

          Effective charges (d Force / dE) in cartesian axis

[...]

          Effective charges (d P / du) in cartesian axis

           atom      1   Al
      Px  (        2.52306        0.00000        0.00000 )
      Py  (        0.00000        2.52306       -0.00000 )
      Pz  (       -0.00000       -0.00000        2.68106 )
           atom      2   Al
      Px  (        2.52306       -0.00000       -0.00000 )
      Py  (       -0.00000        2.52306        0.00000 )
      Pz  (        0.00000       -0.00000        2.68106 )
           atom      3   N
      Px  (       -2.52528       -0.00000       -0.00000 )
      Py  (        0.00000       -2.52528        0.00000 )
      Pz  (        0.00000        0.00000       -2.69400 )
           atom      4   N
      Px  (       -2.52528       -0.00000       -0.00000 )
      Py  (       -0.00000       -2.52528       -0.00000 )
      Pz  (       -0.00000        0.00000       -2.69400 )

[...]

     Mode symmetry, C_6v (6mm)  point group:

     freq (   1-   1) =         -6.4  [cm-1]   --> A_1             I+R
     freq (   2-   3) =         -4.2  [cm-1]   --> E_1             I+R
     freq (   4-   5) =        236.4  [cm-1]   --> E_2             R
     freq (   6-   6) =        537.6  [cm-1]   --> B_2
     freq (   7-   7) =        599.1  [cm-1]   --> A_1             I+R
     freq (   8-   9) =        640.4  [cm-1]   --> E_2             R
     freq (  10-  11) =        653.3  [cm-1]   --> E_1             I+R
     freq (  12-  12) =        708.3  [cm-1]   --> B_2

     Calculation of q =   -0.2886751  -0.5000000   0.0000000

     Subspace diagonalization in iterative solution of the eigenvalue problem:
     a serial algorithm will be used

     Using Slab Decomposition

     Title:
     phonons of Si mesh

     bravais-lattice index     =            0
     lattice parameter (alat)  =       5.9161  a.u.
     unit-cell volume          =     287.5046 (a.u.)^3
     number of atoms/cell      =            4
     number of atomic types    =            2
     number of electrons       =        16.00
     number of Kohn-Sham states=            8
     kinetic-energy cutoff     =      50.0000  Ry
     charge density cutoff     =     480.0000  Ry
     Exchange-correlation= PBE
                           (   1   4   3   4   0   0   0)

[...]

     atomic species   valence    mass     pseudopotential
        Al             3.00    26.98154     Al( 1.00)
        N              5.00    14.00670     N ( 1.00)

     12 Sym. Ops. (no inversion) found

[...]

     site n.     atom                  positions (alat units)
         1           Al  tau(   1) = (   0.2886751   0.5000000  -0.0012027  )
         2           Al  tau(   2) = (   0.5773503   0.0000000   0.8004348  )
         3           N   tau(   3) = (   0.2886751   0.5000000   0.6104472  )
         4           N   tau(   4) = (   0.5773503   0.0000000   1.4120847  )

     number of k points=    52
                       cart. coord. in units 2pi/alat
        k(    1) = (   0.0000000   0.0000000   0.0000000), wk =   0.0185185
        k(    2) = (  -0.2886751  -0.5000000   0.0000000), wk =   0.0000000
        k(    3) = (   0.0000000   0.0000000   0.2079078), wk =   0.0370370
        k(    4) = (  -0.2886751  -0.5000000   0.2079078), wk =   0.0000000
        k(    5) = (   0.0962250   0.1666667   0.0000000), wk =   0.0370370
        k(    6) = (  -0.1924501  -0.3333333   0.0000000), wk =   0.0000000
        k(    7) = (   0.0962250   0.1666667   0.2079078), wk =   0.0740741
        k(    8) = (  -0.1924501  -0.3333333   0.2079078), wk =   0.0000000
        k(    9) = (   0.1924501   0.3333333   0.0000000), wk =   0.0370370
        k(   10) = (  -0.0962250  -0.1666667   0.0000000), wk =   0.0000000
        k(   11) = (   0.1924501   0.3333333   0.2079078), wk =   0.0740741
        k(   12) = (  -0.0962250  -0.1666667   0.2079078), wk =   0.0000000
        k(   13) = (  -0.2886751  -0.5000000   0.0000000), wk =   0.0185185
        k(   14) = (  -0.5773503  -1.0000000   0.0000000), wk =   0.0000000
        k(   15) = (  -0.2886751  -0.5000000   0.2079078), wk =   0.0370370
        k(   16) = (  -0.5773503  -1.0000000   0.2079078), wk =   0.0000000
        k(   17) = (   0.2886751   0.1666667   0.0000000), wk =   0.0740741
        k(   18) = (   0.0000000  -0.3333333   0.0000000), wk =   0.0000000
        k(   19) = (   0.2886751   0.1666667   0.2079078), wk =   0.1481481
        k(   20) = (   0.0000000  -0.3333333   0.2079078), wk =   0.0000000
        k(   21) = (   0.3849002   0.3333333   0.0000000), wk =   0.0740741
        k(   22) = (   0.0962250  -0.1666667   0.0000000), wk =   0.0000000
        k(   23) = (   0.3849002   0.3333333   0.2079078), wk =   0.1481481
        k(   24) = (   0.0962250  -0.1666667   0.2079078), wk =   0.0000000
        k(   25) = (   0.5773503   0.3333333   0.0000000), wk =   0.0370370
        k(   26) = (   0.2886751  -0.1666667   0.0000000), wk =   0.0000000
        k(   27) = (   0.5773503   0.3333333   0.2079078), wk =   0.0740741
        k(   28) = (   0.2886751  -0.1666667   0.2079078), wk =   0.0000000
        k(   29) = (  -0.1924501   0.0000000   0.0000000), wk =   0.0740741
        k(   30) = (  -0.4811252  -0.5000000   0.0000000), wk =   0.0000000
        k(   31) = (  -0.1924501   0.0000000   0.2079078), wk =   0.1481481
        k(   32) = (  -0.4811252  -0.5000000   0.2079078), wk =   0.0000000
        k(   33) = (  -0.3849002   0.0000000   0.0000000), wk =   0.0740741
        k(   34) = (  -0.6735753  -0.5000000   0.0000000), wk =   0.0000000
        k(   35) = (  -0.3849002   0.0000000   0.2079078), wk =   0.1481481
        k(   36) = (  -0.6735753  -0.5000000   0.2079078), wk =   0.0000000
        k(   37) = (   0.5773503  -0.0000000   0.0000000), wk =   0.0370370
        k(   38) = (   0.2886751  -0.5000000   0.0000000), wk =   0.0000000
        k(   39) = (   0.5773503  -0.0000000   0.2079078), wk =   0.0740741
        k(   40) = (   0.2886751  -0.5000000   0.2079078), wk =   0.0000000
        k(   41) = (  -0.2886751   0.1666667   0.0000000), wk =   0.0370370
        k(   42) = (  -0.5773503  -0.3333333   0.0000000), wk =   0.0000000
        k(   43) = (  -0.2886751   0.1666667   0.2079078), wk =   0.0740741
        k(   44) = (  -0.5773503  -0.3333333   0.2079078), wk =   0.0000000
        k(   45) = (  -0.4811252   0.1666667   0.0000000), wk =   0.0740741
        k(   46) = (  -0.7698004  -0.3333333   0.0000000), wk =   0.0000000
        k(   47) = (   0.0962250  -0.5000000   0.0000000), wk =   0.0740741
        k(   48) = (  -0.1924501  -1.0000000   0.0000000), wk =   0.0000000
        k(   49) = (  -0.4811252   0.1666667   0.2079078), wk =   0.1481481
        k(   50) = (  -0.7698004  -0.3333333   0.2079078), wk =   0.0000000
        k(   51) = (   0.0962250  -0.5000000   0.2079078), wk =   0.1481481
        k(   52) = (  -0.1924501  -1.0000000   0.2079078), wk =   0.0000000

     The potential is recalculated from file :
     ./_ph0/aln.save/charge-density

     Starting wfcs are   16 atomic wfcs
     Checking if some PAW data can be deallocated...

     Band Structure Calculation
     Davidson diagonalization with overlap

     ethr =  6.25E-11,  avg # of iterations = 13.5

     End of band structure calculation

[...]

          k = 0.0962-0.5000 0.2079 (  1715 PWs)   bands (ev):

[...]

          k =-0.1925-1.0000 0.2079 (  1710 PWs)   bands (ev):

    -6.6440  -5.9598   1.9771   2.6613   4.4170   5.3677   5.9945   6.0012

     highest occupied level (ev):     6.9032

     Writing output data file ./_ph0/aln.save/

     phonons of Si mesh

     bravais-lattice index     =            0
     lattice parameter (alat)  =       5.9161  a.u.
     unit-cell volume          =     287.5046 (a.u.)^3
     number of atoms/cell      =            4
     number of atomic types    =            2
     kinetic-energy cut-off    =      50.0000  Ry
     charge density cut-off    =     480.0000  Ry
     convergence threshold     =      1.0E-16
     beta                      =       0.5000
     number of iterations used =            4
     Exchange-correlation= PBE
                           (   1   4   3   4   0   0   0)

     celldm(1)=    5.91610  celldm(2)=    0.00000  celldm(3)=    0.00000
     celldm(4)=    0.00000  celldm(5)=    0.00000  celldm(6)=    0.00000

     crystal axes: (cart. coord. in units of alat)
               a(1) = (  0.8660 -0.5000  0.0000 )
               a(2) = (  0.0000  1.0000  0.0000 )
               a(3) = (  0.0000  0.0000  1.6033 )

     reciprocal axes: (cart. coord. in units 2 pi/alat)
               b(1) = (  1.1547  0.0000  0.0000 )
               b(2) = (  0.5774  1.0000 -0.0000 )
               b(3) = ( -0.0000  0.0000  0.6237 )

     Atoms inside the unit cell:

     Cartesian axes

     site n.  atom      mass           positions (alat units)
        1     Al  26.9815   tau(    1) = (    0.28868    0.50000   -0.00120  )
        2     Al  26.9815   tau(    2) = (    0.57735    0.00000    0.80043  )
        3     N   14.0067   tau(    3) = (    0.28868    0.50000    0.61045  )
        4     N   14.0067   tau(    4) = (    0.57735    0.00000    1.41208  )

     Computing dynamical matrix for
                    q = (  -0.2886751  -0.5000000   0.0000000 )

      5 Sym.Ops. (with q -> -q+G )

     G cutoff =  425.5517  (  12768 G-vectors)     FFT grid: ( 45, 45, 72)
     G cutoff =  177.3132  (   3423 G-vectors)  smooth grid: ( 27, 27, 48)
     number of k points=    52

     PseudoPot. # 1 for Al read from file:
     ./pseudo/Al.pbe-n-kjpaw_psl.1.0.0.UPF
     MD5 check sum: cfc449ca30b5f3223ec38ddd88ac046d
     Pseudo is Projector augmented-wave + core cor, Zval =  3.0
     Generated using "atomic" code by A. Dal Corso  v.5.1
     Shape of augmentation charge: PSQ
     Using radial grid of 1135 points,  6 beta functions with:
                l(1) =   0
                l(2) =   0
                l(3) =   1
                l(4) =   1
                l(5) =   2
                l(6) =   2
     Q(r) pseudized with 0 coefficients

     PseudoPot. # 2 for N  read from file:
     ./pseudo/N.pbe-n-radius_5.UPF
     MD5 check sum: 16739722b17309cd8fe442a2ace49922
     Pseudo is Ultrasoft + core correction, Zval =  5.0
     Generated using "atomic" code by A. Dal Corso  v.5.1
     Using radial grid of 1085 points,  4 beta functions with:
                l(1) =   0
                l(2) =   0
                l(3) =   1
                l(4) =   1
     Q(r) pseudized with 0 coefficients

[...]

     Atomic displacements:
     There are   12 irreducible representations

[...]

     Representation    12      1 modes -  To be done

     Alpha used in Ewald sum =   2.8000

[...]

     Representation #  12 mode #  12

     Self-consistent Calculation

[...]

      thresh= 2.845E-09 alpha_mix =  0.500 |ddv_scf|^2 =  2.244E-17

     End of self-consistent calculation

     Convergence has been achieved

     Number of q in the star =    3
     List of q in the star:
          1  -0.288675134  -0.500000003   0.000000000
          2   0.577350268  -0.000000000   0.000000000
          3  -0.288675134   0.500000003   0.000000000

     Diagonalizing the dynamical matrix

     q = (   -0.288675134  -0.500000003   0.000000000 )

     freq (    1) =       6.699655 [THz] =     223.476426 [cm-1]
     freq (    2) =       8.985895 [THz] =     299.737187 [cm-1]
     freq (    3) =      10.087728 [THz] =     336.490384 [cm-1]
     freq (    4) =      11.833407 [THz] =     394.719981 [cm-1]
     freq (    5) =      14.776520 [THz] =     492.891668 [cm-1]
     freq (    6) =      15.285174 [THz] =     509.858516 [cm-1]
     freq (    7) =      18.638098 [THz] =     621.700018 [cm-1]
     freq (    8) =      19.218358 [THz] =     641.055418 [cm-1]
     freq (    9) =      19.673804 [THz] =     656.247458 [cm-1]
     freq (   10) =      19.751547 [THz] =     658.840680 [cm-1]
     freq (   11) =      21.374437 [THz] =     712.974473 [cm-1]
     freq (   12) =      21.949301 [THz] =     732.149862 [cm-1]

     Mode symmetry, C_2v (mm2)  point group:

     freq (   1-   1) =        223.5  [cm-1]   --> A_2  D_2  S_2
     freq (   2-   2) =        299.7  [cm-1]   --> B_1  D_3  S_3
     freq (   3-   3) =        336.5  [cm-1]   --> B_2  D_4  S_4
     freq (   4-   4) =        394.7  [cm-1]   --> A_1  D_1  S_1
     freq (   5-   5) =        492.9  [cm-1]   --> B_1  D_3  S_3
     freq (   6-   6) =        509.9  [cm-1]   --> A_1  D_1  S_1
     freq (   7-   7) =        621.7  [cm-1]   --> B_1  D_3  S_3
     freq (   8-   8) =        641.1  [cm-1]   --> A_2  D_2  S_2
     freq (   9-   9) =        656.2  [cm-1]   --> B_2  D_4  S_4
     freq (  10-  10) =        658.8  [cm-1]   --> A_1  D_1  S_1
     freq (  11-  11) =        713.0  [cm-1]   --> B_1  D_3  S_3
     freq (  12-  12) =        732.1  [cm-1]   --> A_1  D_1  S_1

[...]

     Parallel routines

     INITIALIZATION:

     DYNAMICAL MATRIX:

      General routines

   This run was terminated on:   0:13:41  13May2023

   JOB DONE.