     Program PWSCF v.6.8 starts on 12May2023 at 23:37:56

     Reading input from pw.scf.aln.in

     Current dimensions of program PWSCF are:
     Max number of different atomic species (ntypx) = 10
     Max number of k-points (npk) =  40000
     Max angular momentum in pseudopotentials (lmaxx) =  4
     file Al.pbe-n-kjpaw_psl.1.0.0.UPF: wavefunction(s)  3S 3P renormalized
     Message from routine setup:
     using ibrav=0 with symmetry is DISCOURAGED, use correct ibrav instead

     Subspace diagonalization in iterative solution of the eigenvalue problem:
     a serial algorithm will be used

     Using Slab Decomposition

     bravais-lattice index     =            0
     lattice parameter (alat)  =       5.9161  a.u.
     unit-cell volume          =     287.5046 (a.u.)^3
     number of atoms/cell      =            4
     number of atomic types    =            2
     number of electrons       =        16.00
     number of Kohn-Sham states=            8
     kinetic-energy cutoff     =      50.0000  Ry
     charge density cutoff     =     480.0000  Ry
     scf convergence threshold =      8.0E-10
     mixing beta               =       0.4000
     number of iterations used =            8  plain     mixing
     Exchange-correlation= PBE
                           (   1   4   3   4   0   0   0)

     celldm(1)=   5.916099  celldm(2)=   0.000000  celldm(3)=   0.000000
     celldm(4)=   0.000000  celldm(5)=   0.000000  celldm(6)=   0.000000

     crystal axes: (cart. coord. in units of alat)
               a(1) = (   0.866025  -0.500000   0.000000 )
               a(2) = (  -0.000000   1.000000   0.000000 )
               a(3) = (   0.000000   0.000000   1.603275 )

     reciprocal axes: (cart. coord. in units 2 pi/alat)
               b(1) = (  1.154701  0.000000 -0.000000 )
               b(2) = (  0.577350  1.000000 -0.000000 )
               b(3) = ( -0.000000 -0.000000  0.623723 )

     PseudoPot. # 1 for Al read from file:
     ./pseudo/Al.pbe-n-kjpaw_psl.1.0.0.UPF
     MD5 check sum: cfc449ca30b5f3223ec38ddd88ac046d
     Pseudo is Projector augmented-wave + core cor, Zval =  3.0
     Generated using "atomic" code by A. Dal Corso  v.5.1
     Shape of augmentation charge: PSQ
     Using radial grid of 1135 points,  6 beta functions with:
                l(1) =   0
                l(2) =   0
                l(3) =   1
                l(4) =   1
                l(5) =   2
                l(6) =   2
     Q(r) pseudized with 0 coefficients

     PseudoPot. # 2 for N  read from file:
     ./pseudo/N.pbe-n-radius_5.UPF
     MD5 check sum: 16739722b17309cd8fe442a2ace49922
     Pseudo is Ultrasoft + core correction, Zval =  5.0
     Generated using "atomic" code by A. Dal Corso  v.5.1
     Using radial grid of 1085 points,  4 beta functions with:
                l(1) =   0
                l(2) =   0
                l(3) =   1
                l(4) =   1
     Q(r) pseudized with 0 coefficients

     atomic species   valence    mass     pseudopotential
        Al             3.00    26.98154     Al( 1.00)
        N              5.00    14.00670     N ( 1.00)

     12 Sym. Ops. (no inversion) found ( 6 have fractional translation)

                                    s                        frac. trans.

      isym =  1     identity

 cryst.   s( 1) = (     1          0          0      )
                  (     0          1          0      )
                  (     0          0          1      )

 cart.    s( 1) = (  1.0000000  0.0000000  0.0000000 )
                  (  0.0000000  1.0000000  0.0000000 )
                  (  0.0000000  0.0000000  1.0000000 )

      isym =  2     180 deg rotation - cart. axis [0,0,1]

 cryst.   s( 2) = (    -1          0          0      )    f =(  0.0000000 )
                  (     0         -1          0      )       ( -0.0000000 )
                  (     0          0          1      )       ( -0.5000000 )

 cart.    s( 2) = ( -1.0000000  0.0000000  0.0000000 )    f =(  0.0000000 )
                  (  0.0000000 -1.0000000  0.0000000 )       ( -0.0000000 )
                  (  0.0000000  0.0000000  1.0000000 )       ( -0.8016375 )

      isym =  3      60 deg rotation - cryst. axis [0,0,1]

[...]

      isym =  6     120 deg rotation - cryst. axis [0,0,-1]

[...]

      isym =  7     inv. 180 deg rotation - cart. axis [0,1,0]

[...]

      isym =  8     inv. 180 deg rotation - cart. axis [1,0,0]

 cryst.   s( 8) = (    -1         -1          0      )    f =(  0.0000000 )
                  (     0          1          0      )       ( -0.0000000 )
                  (     0          0          1      )       ( -0.5000000 )

 cart.    s( 8) = ( -1.0000000  0.0000000  0.0000000 )    f =(  0.0000000 )
                  (  0.0000000  1.0000000  0.0000000 )       ( -0.0000000 )
                  (  0.0000000  0.0000000  1.0000000 )       ( -0.8016375 )

      isym =  9     inv. 180 deg rotation - cryst. axis [1,-1,0]

 cryst.   s( 9) = (    -1          0          0      )
                  (     1          1          0      )
                  (     0          0          1      )

 cart.    s( 9) = ( -0.5000000  0.8660254  0.0000000 )
                  (  0.8660254  0.5000000  0.0000000 )
                  (  0.0000000  0.0000000  1.0000000 )

[...]

 cryst.   s(10) = (     0         -1          0      )
                  (    -1          0          0      )
                  (     0          0          1      )

 cart.    s(10) = ( -0.5000000 -0.8660254  0.0000000 )
                  ( -0.8660254  0.5000000  0.0000000 )
                  (  0.0000000  0.0000000  1.0000000 )

[...]

 cryst.   s(11) = (     0          1          0      )    f =( -0.0000000 )
                  (     1          0          0      )       ( -0.0000000 )
                  (     0          0          1      )       ( -0.5000000 )

 cart.    s(11) = (  0.5000000  0.8660254  0.0000000 )    f =( -0.0000000 )
                  (  0.8660254 -0.5000000  0.0000000 )       ( -0.0000000 )
                  (  0.0000000  0.0000000  1.0000000 )       ( -0.8016375 )

      isym = 12     inv. 180 deg rotation - cryst. axis [1,1,0]

 cryst.   s(12) = (     1          0          0      )    f =( -0.0000000 )
                  (    -1         -1          0      )       ( -0.0000000 )
                  (     0          0          1      )       ( -0.5000000 )

 cart.    s(12) = (  0.5000000 -0.8660254  0.0000000 )    f =( -0.0000000 )
                  ( -0.8660254 -0.5000000  0.0000000 )       ( -0.0000000 )
                  (  0.0000000  0.0000000  1.0000000 )       ( -0.8016375 )

   Cartesian axes

     site n.     atom                  positions (alat units)
         1           Al  tau(   1) = (   0.2886751   0.5000000  -0.0012027  )
         2           Al  tau(   2) = (   0.5773503   0.0000000   0.8004348  )
         3           N   tau(   3) = (   0.2886751   0.5000000   0.6104472  )
         4           N   tau(   4) = (   0.5773503   0.0000000   1.4120847  )

   Crystallographic axes

     site n.     atom                  positions (cryst. coord.)
         1           Al  tau(   1) = (  0.3333333  0.6666667 -0.0007502  )
         2           Al  tau(   2) = (  0.6666667  0.3333333  0.4992498  )
         3           N   tau(   3) = (  0.3333333  0.6666667  0.3807502  )
         4           N   tau(   4) = (  0.6666667  0.3333333  0.8807502  )

     number of k points=    14
                       cart. coord. in units 2pi/alat
        k(    1) = (   0.0000000   0.0000000   0.0000000), wk =   0.0185185
        k(    2) = (   0.0000000   0.0000000   0.2079078), wk =   0.0370370
        k(    3) = (   0.0962250   0.1666667   0.0000000), wk =   0.1111111
        k(    4) = (   0.0962250   0.1666667   0.2079078), wk =   0.2222222
        k(    5) = (   0.1924501   0.3333333   0.0000000), wk =   0.1111111
        k(    6) = (   0.1924501   0.3333333   0.2079078), wk =   0.2222222
        k(    7) = (  -0.2886751  -0.5000000   0.0000000), wk =   0.0555556
        k(    8) = (  -0.2886751  -0.5000000   0.2079078), wk =   0.1111111
        k(    9) = (   0.2886751   0.1666667   0.0000000), wk =   0.1111111
        k(   10) = (   0.2886751   0.1666667   0.2079078), wk =   0.2222222
        k(   11) = (   0.3849002   0.3333333   0.0000000), wk =   0.2222222
        k(   12) = (   0.3849002   0.3333333   0.2079078), wk =   0.4444444
        k(   13) = (   0.5773503   0.3333333   0.0000000), wk =   0.0370370
        k(   14) = (   0.5773503   0.3333333   0.2079078), wk =   0.0740741

                       cryst. coord.
        k(    1) = (   0.0000000   0.0000000   0.0000000), wk =   0.0185185
        k(    2) = (   0.0000000   0.0000000   0.3333333), wk =   0.0370370
        k(    3) = (   0.0000000   0.1666667   0.0000000), wk =   0.1111111
        k(    4) = (   0.0000000   0.1666667   0.3333333), wk =   0.2222222
        k(    5) = (   0.0000000   0.3333333   0.0000000), wk =   0.1111111
        k(    6) = (   0.0000000   0.3333333   0.3333333), wk =   0.2222222
        k(    7) = (  -0.0000000  -0.5000000   0.0000000), wk =   0.0555556
        k(    8) = (  -0.0000000  -0.5000000   0.3333333), wk =   0.1111111
        k(    9) = (   0.1666667   0.1666667   0.0000000), wk =   0.1111111
        k(   10) = (   0.1666667   0.1666667   0.3333333), wk =   0.2222222
        k(   11) = (   0.1666667   0.3333333   0.0000000), wk =   0.2222222
        k(   12) = (   0.1666667   0.3333333   0.3333333), wk =   0.4444444
        k(   13) = (   0.3333333   0.3333333   0.0000000), wk =   0.0370370
        k(   14) = (   0.3333333   0.3333333   0.3333333), wk =   0.0740741

     Initial potential from superposition of free atoms

     starting charge   15.99540, renormalised to   16.00000
     Starting wfcs are   16 randomized atomic wfcs
     Checking if some PAW data can be deallocated...

     Self-consistent Calculation

     iteration #  1     ecut=    50.00 Ry     beta= 0.40
     Davidson diagonalization with overlap

     ethr =  1.00E-02,  avg # of iterations =  2.0

     total energy              =    -119.51199242 Ry
     estimated scf accuracy    <       1.21267129 Ry

[...]

     total energy              =    -119.79365014 Ry
     estimated scf accuracy    <          1.1E-09 Ry

     iteration # 26     ecut=    50.00 Ry     beta= 0.40
     Davidson diagonalization with overlap

     ethr =  6.59E-12,  avg # of iterations =  2.9

     End of self-consistent calculation

          k = 0.0000 0.0000 0.0000 (  1737 PWs)   bands (ev):

    -8.1603  -6.0789   0.9980   6.0601   6.0601   6.7023   6.7023   6.9034

     occupation numbers
     1.0000   1.0000   1.0000   1.0000   1.0000   1.0000   1.0000   1.0000

[...]

          k =-0.2887-0.5000 0.0000 (  1694 PWs)   bands (ev):

[...]

          k =-0.2887-0.5000 0.2079 (  1714 PWs)   bands (ev):

[...]

          k = 0.5774 0.3333 0.2079 (  1704 PWs)   bands (ev):

[...]

     occupation numbers
     1.0000   1.0000   1.0000   1.0000   1.0000   1.0000   1.0000   1.0000

     highest occupied level (ev):     6.9034

!    total energy              =    -119.79365014 Ry
     estimated scf accuracy    <          3.4E-10 Ry

     The total energy is the sum of the following terms:
     one-electron contribution =      -2.21292134 Ry
     hartree contribution      =      11.48231012 Ry
     xc contribution           =     -16.48370153 Ry
     ewald contribution        =     -43.21313419 Ry
     one-center paw contrib.   =     -69.36620319 Ry
      -> PAW hartree energy AE =       4.62192072 Ry
      -> PAW hartree energy PS =      -4.61289930 Ry
      -> PAW xc energy AE      =     -73.98428754 Ry
      -> PAW xc energy PS      =       4.60906292 Ry
      -> total E_H with PAW    =      11.49133154 Ry
      -> total E_XC with PAW   =     -85.85892615 Ry

     convergence has been achieved in  26 iterations

     Forces acting on atoms (cartesian axes, Ry/au):

     atom    1 type  1   force =    -0.00000000   -0.00000000    0.00001907
     atom    2 type  1   force =    -0.00000000   -0.00000000    0.00001907
     atom    3 type  2   force =     0.00000000    0.00000000   -0.00001907
     atom    4 type  2   force =    -0.00000000   -0.00000000   -0.00001907
     The non-local contrib.  to forces
     atom    1 type  1   force =     0.00000000    0.00000000   -0.00838046
     atom    2 type  1   force =    -0.00000000   -0.00000000   -0.00838046
     atom    3 type  2   force =     0.00000000    0.00000000    0.00346948
     atom    4 type  2   force =     0.00000000    0.00000000    0.00346948
     The ionic contribution  to forces
     atom    1 type  1   force =    -0.00000003   -0.00000000    0.00212192
     atom    2 type  1   force =     0.00000003    0.00000000    0.00212192
     atom    3 type  2   force =    -0.00000003   -0.00000000   -0.00212192
     atom    4 type  2   force =     0.00000003    0.00000000   -0.00212192
     The local contribution  to forces
     atom    1 type  1   force =     0.00000002    0.00000000    0.00512992
     atom    2 type  1   force =    -0.00000002   -0.00000000    0.00512992
     atom    3 type  2   force =     0.00000001   -0.00000000   -0.00134225
     atom    4 type  2   force =    -0.00000000    0.00000000   -0.00134225
     The core correction contribution to forces
     atom    1 type  1   force =     0.00000000    0.00000000    0.00114776
     atom    2 type  1   force =    -0.00000000   -0.00000000    0.00114776
     atom    3 type  2   force =     0.00000000    0.00000000   -0.00002454
     atom    4 type  2   force =    -0.00000000   -0.00000000   -0.00002454
     The Hubbard contrib.    to forces
     atom    1 type  1   force =     0.00000000    0.00000000    0.00000000
     atom    2 type  1   force =     0.00000000    0.00000000    0.00000000
     atom    3 type  2   force =     0.00000000    0.00000000    0.00000000
     atom    4 type  2   force =     0.00000000    0.00000000    0.00000000
     The SCF correction term to forces
     atom    1 type  1   force =     0.00000000    0.00000000   -0.00000005
     atom    2 type  1   force =    -0.00000000   -0.00000000   -0.00000005
     atom    3 type  2   force =     0.00000000   -0.00000000    0.00000016
     atom    4 type  2   force =     0.00000000    0.00000000    0.00000016

     Total force =     0.000038     Total SCF correction =     0.000000

     Computing stress (Cartesian axis) and pressure

          total   stress  (Ry/bohr**3)                   (kbar)     P=        0.03
   0.00000107   0.00000000  -0.00000000            0.16        0.00       -0.00
   0.00000000   0.00000107  -0.00000000            0.00        0.16       -0.00
  -0.00000000  -0.00000000  -0.00000159           -0.00       -0.00       -0.23

     kinetic stress (kbar)   9305.37     -0.00      0.00
                               -0.00   9305.37      0.00
                                0.00      0.00   9344.64

     local   stress (kbar)  -4815.11     -0.00     -0.00
                               -0.00  -4815.11     -0.00
                               -0.00     -0.00  -5208.17

     nonloc. stress (kbar)   3458.55      0.00      0.00
                                0.00   3458.55      0.00
                               -0.00     -0.00   3430.13

     hartree stress (kbar)   1898.03     -0.00     -0.00
                               -0.00   1898.03     -0.00
                               -0.00     -0.00   2078.99

     exc-cor stress (kbar)  -1016.56      0.00      0.00
                                0.00  -1016.56      0.00
                                0.00      0.00  -1016.49

     corecor stress (kbar)  -1394.43     -0.00     -0.00
                               -0.00  -1394.43     -0.00
                               -0.00     -0.00  -1390.22

     ewald   stress (kbar)  -7435.69      0.00     -0.00
                                0.00  -7435.69     -0.00
                               -0.00     -0.00  -7239.11

     hubbard stress (kbar)      0.00      0.00      0.00
                                0.00      0.00      0.00
                                0.00      0.00      0.00

     DFT-D   stress (kbar)      0.00      0.00      0.00
                                0.00      0.00      0.00
                                0.00      0.00      0.00

     XDM     stress (kbar)      0.00      0.00      0.00
                                0.00      0.00      0.00
                                0.00      0.00      0.00

     dft-nl  stress (kbar)      0.00      0.00      0.00
                                0.00      0.00      0.00
                                0.00      0.00      0.00

     TS-vdW  stress (kbar)      0.00      0.00      0.00
                                0.00      0.00      0.00
                                0.00      0.00      0.00

[...]

                                0.00      0.00      0.00

     Writing output data file ./aln.save/

     General routines

     Parallel routines

     PAW routines

   This run was terminated on:  23:38:35  12May2023

   JOB DONE.