     Program PWSCF v.6.8 starts on 13May2023 at 18: 6: 2

     K-points division:     npool     =       4
     R & G space division:  proc/nbgrp/npool/nimage =      12

     Reading input from pw.scf.aln.in

     Current dimensions of program PWSCF are:
     Max number of different atomic species (ntypx) = 10
     Max number of k-points (npk) =  40000
     Max angular momentum in pseudopotentials (lmaxx) =  4
     file Al.pbe-n-kjpaw_psl.1.0.0.UPF: wavefunction(s)  3S 3P renormalized
     Message from routine setup:
     using ibrav=0 with symmetry is DISCOURAGED, use correct ibrav instead

     Using Slab Decomposition

     bravais-lattice index     =            0
     lattice parameter (alat)  =       5.9161  a.u.
     unit-cell volume          =     287.5046 (a.u.)^3
     number of atoms/cell      =            4
     number of atomic types    =            2
     number of electrons       =        16.00
     number of Kohn-Sham states=            8
     kinetic-energy cutoff     =      60.0000  Ry
     charge density cutoff     =     600.0000  Ry
     scf convergence threshold =      8.0E-10
     mixing beta               =       0.4000
     number of iterations used =            8  plain     mixing
     energy convergence thresh.=      1.0E-04
     force convergence thresh. =      1.0E-03
     Exchange-correlation= PBE
                           (   1   4   3   4   0   0   0)
     nstep                     =           50

     celldm(1)=   5.916099  celldm(2)=   0.000000  celldm(3)=   0.000000
     celldm(4)=   0.000000  celldm(5)=   0.000000  celldm(6)=   0.000000

     crystal axes: (cart. coord. in units of alat)
               a(1) = (   0.866025  -0.500000   0.000000 )
               a(2) = (   0.000000   1.000000   0.000000 )
               a(3) = (   0.000000   0.000000   1.603275 )

     reciprocal axes: (cart. coord. in units 2 pi/alat)
               b(1) = (  1.154701  0.000000  0.000000 )
               b(2) = (  0.577350  1.000000  0.000000 )
               b(3) = (  0.000000  0.000000  0.623723 )

     PseudoPot. # 1 for Al read from file:
     ./pseudo/Al.pbe-n-kjpaw_psl.1.0.0.UPF
     MD5 check sum: cfc449ca30b5f3223ec38ddd88ac046d
     Pseudo is Projector augmented-wave + core cor, Zval =  3.0
     Generated using "atomic" code by A. Dal Corso  v.5.1
     Shape of augmentation charge: PSQ
     Using radial grid of 1135 points,  6 beta functions with:
                l(1) =   0
                l(2) =   0
                l(3) =   1
                l(4) =   1
                l(5) =   2
                l(6) =   2
     Q(r) pseudized with 0 coefficients

     PseudoPot. # 2 for N  read from file:
     ./pseudo/N.pbe-n-radius_5.UPF
     MD5 check sum: 16739722b17309cd8fe442a2ace49922
     Pseudo is Ultrasoft + core correction, Zval =  5.0
     Generated using "atomic" code by A. Dal Corso  v.5.1
     Using radial grid of 1085 points,  4 beta functions with:
                l(1) =   0
                l(2) =   0
                l(3) =   1
                l(4) =   1
     Q(r) pseudized with 0 coefficients

     atomic species   valence    mass     pseudopotential
        Al             3.00    26.98154     Al( 1.00)
        N              5.00    14.00670     N ( 1.00)

     12 Sym. Ops. (no inversion) found ( 6 have fractional translation)

                                    s                        frac. trans.

      isym =  1     identity

 cryst.   s( 1) = (     1          0          0      )
                  (     0          1          0      )
                  (     0          0          1      )

 cart.    s( 1) = (  1.0000000  0.0000000  0.0000000 )
                  (  0.0000000  1.0000000  0.0000000 )
                  (  0.0000000  0.0000000  1.0000000 )

      isym =  2     180 deg rotation - cart. axis [0,0,1]

 cryst.   s( 2) = (    -1          0          0      )    f =(  0.0000000 )
                  (     0         -1          0      )       ( -0.0000000 )
                  (     0          0          1      )       ( -0.5000000 )

 cart.    s( 2) = ( -1.0000000  0.0000000  0.0000000 )    f =(  0.0000000 )
                  (  0.0000000 -1.0000000  0.0000000 )       ( -0.0000000 )
                  (  0.0000000  0.0000000  1.0000000 )       ( -0.8016375 )

      isym =  3      60 deg rotation - cryst. axis [0,0,1]

[...]

      isym =  6     120 deg rotation - cryst. axis [0,0,-1]

[...]

      isym =  7     inv. 180 deg rotation - cart. axis [0,1,0]

[...]

      isym =  8     inv. 180 deg rotation - cart. axis [1,0,0]

 cryst.   s( 8) = (    -1         -1          0      )    f =(  0.0000000 )
                  (     0          1          0      )       ( -0.0000000 )
                  (     0          0          1      )       ( -0.5000000 )

 cart.    s( 8) = ( -1.0000000  0.0000000  0.0000000 )    f =(  0.0000000 )
                  (  0.0000000  1.0000000  0.0000000 )       ( -0.0000000 )
                  (  0.0000000  0.0000000  1.0000000 )       ( -0.8016375 )

      isym =  9     inv. 180 deg rotation - cryst. axis [1,-1,0]

 cryst.   s( 9) = (    -1          0          0      )
                  (     1          1          0      )
                  (     0          0          1      )

 cart.    s( 9) = ( -0.5000000  0.8660254  0.0000000 )
                  (  0.8660254  0.5000000  0.0000000 )
                  (  0.0000000  0.0000000  1.0000000 )

[...]

 cryst.   s(10) = (     0         -1          0      )
                  (    -1          0          0      )
                  (     0          0          1      )

 cart.    s(10) = ( -0.5000000 -0.8660254  0.0000000 )
                  ( -0.8660254  0.5000000  0.0000000 )
                  (  0.0000000  0.0000000  1.0000000 )

[...]

 cryst.   s(11) = (     0          1          0      )    f =( -0.0000000 )
                  (     1          0          0      )       ( -0.0000000 )
                  (     0          0          1      )       ( -0.5000000 )

 cart.    s(11) = (  0.5000000  0.8660254  0.0000000 )    f =( -0.0000000 )
                  (  0.8660254 -0.5000000  0.0000000 )       ( -0.0000000 )
                  (  0.0000000  0.0000000  1.0000000 )       ( -0.8016375 )

      isym = 12     inv. 180 deg rotation - cryst. axis [1,1,0]

 cryst.   s(12) = (     1          0          0      )    f =( -0.0000000 )
                  (    -1         -1          0      )       ( -0.0000000 )
                  (     0          0          1      )       ( -0.5000000 )

 cart.    s(12) = (  0.5000000 -0.8660254  0.0000000 )    f =( -0.0000000 )
                  ( -0.8660254 -0.5000000  0.0000000 )       ( -0.0000000 )
                  (  0.0000000  0.0000000  1.0000000 )       ( -0.8016375 )

   Cartesian axes

     site n.     atom                  positions (alat units)
         1           Al  tau(   1) = (   0.2886751   0.5000000  -0.0012027  )
         2           Al  tau(   2) = (   0.5773503   0.0000000   0.8004348  )
         3           N   tau(   3) = (   0.2886751   0.5000000   0.6104472  )
         4           N   tau(   4) = (   0.5773503   0.0000000   1.4120847  )

   Crystallographic axes

     site n.     atom                  positions (cryst. coord.)
         1           Al  tau(   1) = (  0.3333333  0.6666667 -0.0007502  )
         2           Al  tau(   2) = (  0.6666667  0.3333333  0.4992498  )
         3           N   tau(   3) = (  0.3333333  0.6666667  0.3807502  )
         4           N   tau(   4) = (  0.6666667  0.3333333  0.8807502  )

     number of k points=    30
                       cart. coord. in units 2pi/alat
        k(    1) = (   0.0000000   0.0000000   0.0000000), wk =   0.0078125
        k(    2) = (   0.0000000   0.0000000   0.1559308), wk =   0.0156250
        k(    3) = (   0.0000000   0.0000000  -0.3118617), wk =   0.0078125
        k(    4) = (   0.0721688   0.1250000   0.0000000), wk =   0.0468750
        k(    5) = (   0.0721688   0.1250000   0.1559308), wk =   0.0937500
        k(    6) = (   0.0721688   0.1250000  -0.3118617), wk =   0.0468750
        k(    7) = (   0.1443376   0.2500000   0.0000000), wk =   0.0468750
        k(    8) = (   0.1443376   0.2500000   0.1559308), wk =   0.0937500
        k(    9) = (   0.1443376   0.2500000  -0.3118617), wk =   0.0468750
        k(   10) = (   0.2165064   0.3750000   0.0000000), wk =   0.0468750
        k(   11) = (   0.2165064   0.3750000   0.1559308), wk =   0.0937500
        k(   12) = (   0.2165064   0.3750000  -0.3118617), wk =   0.0468750
        k(   13) = (  -0.2886751  -0.5000000   0.0000000), wk =   0.0234375
        k(   14) = (  -0.2886751  -0.5000000   0.1559308), wk =   0.0468750
        k(   15) = (  -0.2886751  -0.5000000  -0.3118617), wk =   0.0234375
        k(   16) = (   0.2165064   0.1250000   0.0000000), wk =   0.0468750
        k(   17) = (   0.2165064   0.1250000   0.1559308), wk =   0.0937500
        k(   18) = (   0.2165064   0.1250000  -0.3118617), wk =   0.0468750
        k(   19) = (   0.2886751   0.2500000   0.0000000), wk =   0.0937500
        k(   20) = (   0.2886751   0.2500000   0.1559308), wk =   0.1875000
        k(   21) = (   0.2886751   0.2500000  -0.3118617), wk =   0.0937500
        k(   22) = (   0.3608439   0.3750000   0.0000000), wk =   0.0937500
        k(   23) = (   0.3608439   0.3750000   0.1559308), wk =   0.1875000
        k(   24) = (   0.3608439   0.3750000  -0.3118617), wk =   0.0937500
        k(   25) = (   0.4330127   0.2500000   0.0000000), wk =   0.0468750
        k(   26) = (   0.4330127   0.2500000   0.1559308), wk =   0.0937500
        k(   27) = (   0.4330127   0.2500000  -0.3118617), wk =   0.0468750
        k(   28) = (   0.5051815   0.3750000   0.0000000), wk =   0.0468750
        k(   29) = (   0.5051815   0.3750000   0.1559308), wk =   0.0937500
        k(   30) = (   0.5051815   0.3750000  -0.3118617), wk =   0.0468750

                       cryst. coord.
        k(    1) = (   0.0000000   0.0000000   0.0000000), wk =   0.0078125
        k(    2) = (   0.0000000   0.0000000   0.2500000), wk =   0.0156250
        k(    3) = (   0.0000000   0.0000000  -0.5000000), wk =   0.0078125
        k(    4) = (   0.0000000   0.1250000   0.0000000), wk =   0.0468750
        k(    5) = (   0.0000000   0.1250000   0.2500000), wk =   0.0937500
        k(    6) = (   0.0000000   0.1250000  -0.5000000), wk =   0.0468750
        k(    7) = (   0.0000000   0.2500000   0.0000000), wk =   0.0468750
        k(    8) = (   0.0000000   0.2500000   0.2500000), wk =   0.0937500
        k(    9) = (   0.0000000   0.2500000  -0.5000000), wk =   0.0468750
        k(   10) = (   0.0000000   0.3750000   0.0000000), wk =   0.0468750
        k(   11) = (   0.0000000   0.3750000   0.2500000), wk =   0.0937500
        k(   12) = (   0.0000000   0.3750000  -0.5000000), wk =   0.0468750
        k(   13) = (  -0.0000000  -0.5000000   0.0000000), wk =   0.0234375
        k(   14) = (  -0.0000000  -0.5000000   0.2500000), wk =   0.0468750
        k(   15) = (  -0.0000000  -0.5000000  -0.5000000), wk =   0.0234375
        k(   16) = (   0.1250000   0.1250000   0.0000000), wk =   0.0468750
        k(   17) = (   0.1250000   0.1250000   0.2500000), wk =   0.0937500
        k(   18) = (   0.1250000   0.1250000  -0.5000000), wk =   0.0468750
        k(   19) = (   0.1250000   0.2500000   0.0000000), wk =   0.0937500
        k(   20) = (   0.1250000   0.2500000   0.2500000), wk =   0.1875000
        k(   21) = (   0.1250000   0.2500000  -0.5000000), wk =   0.0937500
        k(   22) = (   0.1250000   0.3750000   0.0000000), wk =   0.0937500
        k(   23) = (   0.1250000   0.3750000   0.2500000), wk =   0.1875000
        k(   24) = (   0.1250000   0.3750000  -0.5000000), wk =   0.0937500
        k(   25) = (   0.2500000   0.2500000   0.0000000), wk =   0.0468750
        k(   26) = (   0.2500000   0.2500000   0.2500000), wk =   0.0937500
        k(   27) = (   0.2500000   0.2500000  -0.5000000), wk =   0.0468750
        k(   28) = (   0.2500000   0.3750000   0.0000000), wk =   0.0468750
        k(   29) = (   0.2500000   0.3750000   0.2500000), wk =   0.0937500
        k(   30) = (   0.2500000   0.3750000  -0.5000000), wk =   0.0468750

     Initial potential from superposition of free atoms

     starting charge   15.99540, renormalised to   16.00000
     Starting wfcs are   16 randomized atomic wfcs
     Checking if some PAW data can be deallocated...

     Self-consistent Calculation

     iteration #  1     ecut=    60.00 Ry     beta= 0.40
     Davidson diagonalization with overlap

     ethr =  1.00E-02,  avg # of iterations =  2.0

     total energy              =    -119.50547284 Ry
     estimated scf accuracy    <       1.22272840 Ry

[...]

     total energy              =    -119.79503240 Ry
     estimated scf accuracy    <       0.00000003 Ry

     iteration # 27     ecut=    60.00 Ry     beta= 0.40
     Davidson diagonalization with overlap

     ethr =  9.98E-12,  avg # of iterations =  6.4

     End of self-consistent calculation

          k = 0.0000 0.0000 0.0000 (  2297 PWs)   bands (ev):

    -8.1615  -6.0801   0.9958   6.0578   6.0578   6.7002   6.7002   6.9012

     occupation numbers
     1.0000   1.0000   1.0000   1.0000   1.0000   1.0000   1.0000   1.0000

[...]

          k =-0.2887-0.5000 0.0000 (  2256 PWs)   bands (ev):

[...]

          k =-0.2887-0.5000-0.3119 (  2252 PWs)   bands (ev):

[...]

          k = 0.5052 0.3750-0.3119 (  2250 PWs)   bands (ev):

[...]

     occupation numbers
     1.0000   1.0000   1.0000   1.0000   1.0000   1.0000   1.0000   1.0000

     highest occupied level (ev):     6.9012

!    total energy              =    -119.79503241 Ry
     estimated scf accuracy    <          5.5E-10 Ry

     The total energy is the sum of the following terms:
     one-electron contribution =      -2.21281471 Ry
     hartree contribution      =      11.48065165 Ry
     xc contribution           =     -16.48342853 Ry
     ewald contribution        =     -43.21313419 Ry
     one-center paw contrib.   =     -69.36630662 Ry
      -> PAW hartree energy AE =       2.31118606 Ry
      -> PAW hartree energy PS =      -2.30667309 Ry
      -> PAW xc energy AE      =     -36.99226609 Ry
      -> PAW xc energy PS      =       2.30459990 Ry
      -> total E_H with PAW    =      11.48516462 Ry
      -> total E_XC with PAW   =     -51.17109472 Ry

     convergence has been achieved in  27 iterations

     Forces acting on atoms (cartesian axes, Ry/au):

     atom    1 type  1   force =    -0.00000000   -0.00000000    0.00001214
     atom    2 type  1   force =     0.00000000    0.00000000    0.00001214
     atom    3 type  2   force =     0.00000000   -0.00000000   -0.00001214
     atom    4 type  2   force =     0.00000000   -0.00000000   -0.00001214
     The non-local contrib.  to forces
     atom    1 type  1   force =     0.00000000   -0.00000000   -0.00838854
     atom    2 type  1   force =    -0.00000000   -0.00000000   -0.00838854
     atom    3 type  2   force =    -0.00000000   -0.00000000    0.00334854
     atom    4 type  2   force =     0.00000000    0.00000000    0.00334854
     The ionic contribution  to forces
     atom    1 type  1   force =    -0.00000003   -0.00000000    0.00212192
     atom    2 type  1   force =     0.00000003    0.00000000    0.00212192
     atom    3 type  2   force =    -0.00000003   -0.00000000   -0.00212192
     atom    4 type  2   force =     0.00000003    0.00000000   -0.00212192
     The local contribution  to forces
     atom    1 type  1   force =     0.00000002    0.00000000    0.00512948
     atom    2 type  1   force =    -0.00000002   -0.00000000    0.00512948
     atom    3 type  2   force =     0.00000001   -0.00000000   -0.00121493
     atom    4 type  2   force =    -0.00000000    0.00000000   -0.00121494
     The core correction contribution to forces
     atom    1 type  1   force =     0.00000000    0.00000000    0.00114916
     atom    2 type  1   force =    -0.00000000   -0.00000000    0.00114916
     atom    3 type  2   force =     0.00000000    0.00000000   -0.00002328
     atom    4 type  2   force =    -0.00000000   -0.00000000   -0.00002328
     The Hubbard contrib.    to forces
     atom    1 type  1   force =     0.00000000    0.00000000    0.00000000
     atom    2 type  1   force =     0.00000000    0.00000000    0.00000000
     atom    3 type  2   force =     0.00000000    0.00000000    0.00000000
     atom    4 type  2   force =     0.00000000    0.00000000    0.00000000
     The SCF correction term to forces
     atom    1 type  1   force =     0.00000000    0.00000000   -0.00000003
     atom    2 type  1   force =    -0.00000000    0.00000000   -0.00000003
     atom    3 type  2   force =    -0.00000000   -0.00000000   -0.00000071
     atom    4 type  2   force =     0.00000000    0.00000000   -0.00000071

     Total force =     0.000024     Total SCF correction =     0.000001

     Computing stress (Cartesian axis) and pressure

          total   stress  (Ry/bohr**3)                   (kbar)     P=       -0.39
  -0.00000166  -0.00000000   0.00000000           -0.24       -0.00        0.00
   0.00000000  -0.00000166   0.00000000            0.00       -0.24        0.00
   0.00000000   0.00000000  -0.00000458            0.00        0.00       -0.67

     kinetic stress (kbar)   9285.46      0.00      0.00
                                0.00   9285.46      0.00
                                0.00      0.00   9324.52

     local   stress (kbar)  -4813.53     -0.00     -0.00
                               -0.00  -4813.53     -0.00
                               -0.00     -0.00  -5206.28

     nonloc. stress (kbar)   3476.62      0.00     -0.00
                                0.00   3476.62      0.00
                                0.00     -0.00   3448.08

     hartree stress (kbar)   1897.76      0.00      0.00
                                0.00   1897.76      0.00
                                0.00      0.00   2078.69

     exc-cor stress (kbar)  -1016.22      0.00      0.00
                                0.00  -1016.22      0.00
                                0.00      0.00  -1016.15

     corecor stress (kbar)  -1394.64     -0.00     -0.00
                               -0.00  -1394.64     -0.00
                               -0.00     -0.00  -1390.43

     ewald   stress (kbar)  -7435.69      0.00     -0.00
                                0.00  -7435.69     -0.00
                               -0.00     -0.00  -7239.11

     hubbard stress (kbar)      0.00      0.00      0.00
                                0.00      0.00      0.00
                                0.00      0.00      0.00

     DFT-D   stress (kbar)      0.00      0.00      0.00
                                0.00      0.00      0.00
                                0.00      0.00      0.00

     XDM     stress (kbar)      0.00      0.00      0.00
                                0.00      0.00      0.00
                                0.00      0.00      0.00

     dft-nl  stress (kbar)      0.00      0.00      0.00
                                0.00      0.00      0.00
                                0.00      0.00      0.00

     TS-vdW  stress (kbar)      0.00      0.00      0.00
                                0.00      0.00      0.00
                                0.00      0.00      0.00

[...]

                                0.00      0.00      0.00

     BFGS Geometry Optimization
     Energy error            =      0.0E+00 Ry
     Gradient error          =      1.2E-05 Ry/Bohr

     bfgs converged in   1 scf cycles and   0 bfgs steps
     (criteria: energy <  1.0E-04 Ry, force <  1.0E-03 Ry/Bohr)

     End of BFGS Geometry Optimization

     Final energy             =    -119.7950324075 Ry
Begin final coordinates

ATOMIC_POSITIONS (angstrom)
Al            0.9037450060        1.5653322571       -0.0037653424
Al            1.8074900119        0.0000000000        2.5058927507
N             0.9037450060        1.5653322571        1.9111054932
N             1.8074900119        0.0000000000        4.4207635863
End final coordinates

     Writing output data file ./aln.save/

     General routines

     Parallel routines

     PAW routines

   This run was terminated on:  18: 6: 7  13May2023

   JOB DONE.