     Program PWSCF v.6.8 starts on 12May2023 at 18:16:15

     Waiting for input...
     Reading input from standard input

     Current dimensions of program PWSCF are:
     Max number of different atomic species (ntypx) = 10
     Max number of k-points (npk) =  40000
     Max angular momentum in pseudopotentials (lmaxx) =  4
     Message from routine volume:
     axis vectors are left-handed
     file Al.pbe-n-kjpaw_psl.1.0.0.UPF: wavefunction(s)  3S 3P renormalized
     Message from routine setup:
     using ibrav=0 with symmetry is DISCOURAGED, use correct ibrav instead

     Subspace diagonalization in iterative solution of the eigenvalue problem:
     a serial algorithm will be used

     Using Slab Decomposition

     bravais-lattice index     =            0
     lattice parameter (alat)  =       5.3984  a.u.
     unit-cell volume          =     111.2451 (a.u.)^3
     number of atoms/cell      =            1
     number of atomic types    =            1
     number of electrons       =         3.00
     number of Kohn-Sham states=            6
     kinetic-energy cutoff     =      30.0000  Ry
     charge density cutoff     =     240.0000  Ry
     scf convergence threshold =      2.0E-10
     mixing beta               =       0.4000
     number of iterations used =            8  plain     mixing
     energy convergence thresh.=      1.0E-05
     force convergence thresh. =      1.0E-04
     press convergence thresh. =      5.0E-01
     Exchange-correlation= SLA  PW   PBX  PBC
                           (   1   4   3   4   0   0   0)
     nstep                     =           50

     celldm(1)=   5.398402  celldm(2)=   0.000000  celldm(3)=   0.000000
     celldm(4)=   0.000000  celldm(5)=   0.000000  celldm(6)=   0.000000

     crystal axes: (cart. coord. in units of alat)
               a(1) = (   0.707107   0.707107   0.000000 )
               a(2) = (   0.707107   0.000000   0.707107 )
               a(3) = (   0.000000   0.707107   0.707107 )

     reciprocal axes: (cart. coord. in units 2 pi/alat)
               b(1) = (  0.707107  0.707107 -0.707107 )
               b(2) = (  0.707107 -0.707107  0.707107 )
               b(3) = ( -0.707107  0.707107  0.707107 )

     PseudoPot. # 1 for Al read from file:
     ./pseudo/Al.pbe-n-kjpaw_psl.1.0.0.UPF
     MD5 check sum: cfc449ca30b5f3223ec38ddd88ac046d
     Pseudo is Projector augmented-wave + core cor, Zval =  3.0
     Generated using "atomic" code by A. Dal Corso  v.5.1
     Shape of augmentation charge: PSQ
     Using radial grid of 1135 points,  6 beta functions with:
                l(1) =   0
                l(2) =   0
                l(3) =   1
                l(4) =   1
                l(5) =   2
                l(6) =   2
     Q(r) pseudized with 0 coefficients

     atomic species   valence    mass     pseudopotential
        Al             3.00    26.98154     Al( 1.00)

     48 Sym. Ops., with inversion, found

                                    s                        frac. trans.

      isym =  1     identity

 cryst.   s( 1) = (     1          0          0      )
                  (     0          1          0      )
                  (     0          0          1      )

 cart.    s( 1) = (  1.0000000  0.0000000  0.0000000 )
                  (  0.0000000  1.0000000  0.0000000 )
                  (  0.0000000  0.0000000  1.0000000 )

      isym =  2     180 deg rotation - cart. axis [0,0,1]

[...]

 cryst.   s(10) = (     0          0         -1      )
                  (     0         -1          0      )
                  (    -1          0          0      )

 cart.    s(10) = (  0.0000000  0.0000000 -1.0000000 )
                  (  0.0000000 -1.0000000  0.0000000 )
                  ( -1.0000000  0.0000000  0.0000000 )

[...]

      isym = 25     inversion

[...]

      isym = 26     inv. 180 deg rotation - cart. axis [0,0,1]

[...]

   Cartesian axes

     site n.     atom                  positions (alat units)
         1           Al  tau(   1) = (   0.0000000   0.0000000   0.0000000  )

   Crystallographic axes

     site n.     atom                  positions (cryst. coord.)
         1           Al  tau(   1) = (  0.0000000  0.0000000  0.0000000  )

     number of k points=   104  Marzari-Vanderbilt smearing, width (Ry)=  0.0200
                       cart. coord. in units 2pi/alat
        k(    1) = (   0.0000000   0.0000000   0.0000000), wk =   0.0007289
        k(    2) = (  -0.0505076   0.0505076   0.0505076), wk =   0.0058309
        k(    3) = (  -0.1010153   0.1010153   0.1010153), wk =   0.0058309
        k(    4) = (  -0.1515229   0.1515229   0.1515229), wk =   0.0058309
        k(    5) = (  -0.2020305   0.2020305   0.2020305), wk =   0.0058309
        k(    6) = (  -0.2525381   0.2525381   0.2525381), wk =   0.0058309
        k(    7) = (  -0.3030458   0.3030458   0.3030458), wk =   0.0058309
        k(    8) = (   0.3535534  -0.3535534  -0.3535534), wk =   0.0029155
        k(    9) = (   0.0000000   0.0000000   0.1010153), wk =   0.0043732
        k(   10) = (  -0.0505076   0.0505076   0.1515229), wk =   0.0174927
        k(   11) = (  -0.1010153   0.1010153   0.2020305), wk =   0.0174927
        k(   12) = (  -0.1515229   0.1515229   0.2525381), wk =   0.0174927
        k(   13) = (  -0.2020305   0.2020305   0.3030458), wk =   0.0174927
        k(   14) = (  -0.2525381   0.2525381   0.3535534), wk =   0.0174927
        k(   15) = (   0.4040610  -0.4040610  -0.3030458), wk =   0.0174927
        k(   16) = (   0.3535534  -0.3535534  -0.2525381), wk =   0.0174927
        k(   17) = (   0.3030458  -0.3030458  -0.2020305), wk =   0.0174927
        k(   18) = (   0.2525381  -0.2525381  -0.1515229), wk =   0.0174927
        k(   19) = (   0.2020305  -0.2020305  -0.1010153), wk =   0.0174927
        k(   20) = (   0.1515229  -0.1515229  -0.0505076), wk =   0.0174927
        k(   21) = (   0.1010153  -0.1010153   0.0000000), wk =   0.0087464
        k(   22) = (   0.0000000   0.0000000   0.2020305), wk =   0.0043732
        k(   23) = (  -0.0505076   0.0505076   0.2525381), wk =   0.0174927
        k(   24) = (  -0.1010153   0.1010153   0.3030458), wk =   0.0174927
        k(   25) = (  -0.1515229   0.1515229   0.3535534), wk =   0.0174927
        k(   26) = (  -0.2020305   0.2020305   0.4040610), wk =   0.0174927
        k(   27) = (   0.4545686  -0.4545686  -0.2525381), wk =   0.0174927
        k(   28) = (   0.4040610  -0.4040610  -0.2020305), wk =   0.0174927
        k(   29) = (   0.3535534  -0.3535534  -0.1515229), wk =   0.0174927
        k(   30) = (   0.3030458  -0.3030458  -0.1010153), wk =   0.0174927
        k(   31) = (   0.2525381  -0.2525381  -0.0505076), wk =   0.0174927
        k(   32) = (   0.2020305  -0.2020305  -0.0000000), wk =   0.0087464
        k(   33) = (   0.0000000   0.0000000   0.3030458), wk =   0.0043732
        k(   34) = (  -0.0505076   0.0505076   0.3535534), wk =   0.0174927
        k(   35) = (  -0.1010153   0.1010153   0.4040610), wk =   0.0174927
        k(   36) = (  -0.1515229   0.1515229   0.4545686), wk =   0.0174927
        k(   37) = (   0.5050763  -0.5050763  -0.2020305), wk =   0.0174927
        k(   38) = (   0.4545686  -0.4545686  -0.1515229), wk =   0.0174927
        k(   39) = (   0.4040610  -0.4040610  -0.1010153), wk =   0.0174927
        k(   40) = (   0.3535534  -0.3535534  -0.0505076), wk =   0.0174927
        k(   41) = (   0.3030458  -0.3030458   0.0000000), wk =   0.0087464
        k(   42) = (   0.0000000   0.0000000   0.4040610), wk =   0.0043732
        k(   43) = (  -0.0505076   0.0505076   0.4545686), wk =   0.0174927
        k(   44) = (  -0.1010153   0.1010153   0.5050763), wk =   0.0174927
        k(   45) = (   0.5555839  -0.5555839  -0.1515229), wk =   0.0174927
        k(   46) = (   0.5050763  -0.5050763  -0.1010153), wk =   0.0174927
        k(   47) = (   0.4545686  -0.4545686  -0.0505076), wk =   0.0174927
        k(   48) = (   0.4040610  -0.4040610   0.0000000), wk =   0.0087464
        k(   49) = (   0.0000000   0.0000000   0.5050763), wk =   0.0043732
        k(   50) = (  -0.0505076   0.0505076   0.5555839), wk =   0.0174927
        k(   51) = (   0.6060915  -0.6060915  -0.1010153), wk =   0.0174927
        k(   52) = (   0.5555839  -0.5555839  -0.0505076), wk =   0.0174927
        k(   53) = (   0.5050763  -0.5050763   0.0000000), wk =   0.0087464
        k(   54) = (   0.0000000   0.0000000   0.6060915), wk =   0.0043732
        k(   55) = (   0.6565992  -0.6565992  -0.0505076), wk =   0.0174927
        k(   56) = (   0.6060915  -0.6060915   0.0000000), wk =   0.0087464
        k(   57) = (   0.0000000   0.0000000  -0.7071068), wk =   0.0021866
        k(   58) = (   0.0000000   0.1010153   0.2020305), wk =   0.0174927
        k(   59) = (  -0.0505076   0.1515229   0.2525381), wk =   0.0349854
        k(   60) = (  -0.1010153   0.2020305   0.3030458), wk =   0.0349854
[...]
        k(   90) = (   0.6565992  -0.4545686  -0.2525381), wk =   0.0349854
        k(   91) = (   0.6060915  -0.4040610  -0.2020305), wk =   0.0349854
        k(   92) = (   0.5555839  -0.3535534  -0.1515229), wk =   0.0174927
        k(   93) = (   0.7071068  -0.5050763  -0.2020305), wk =   0.0174927
        k(   94) = (   0.6565992  -0.4545686  -0.1515229), wk =   0.0349854
        k(   95) = (   0.6060915  -0.4040610  -0.1010153), wk =   0.0349854
        k(   96) = (   0.5555839  -0.3535534  -0.0505076), wk =   0.0349854
        k(   97) = (   0.5050763  -0.3030458   0.0000000), wk =   0.0174927
        k(   98) = (   0.7071068  -0.5050763  -0.1010153), wk =   0.0174927
        k(   99) = (   0.6565992  -0.4545686  -0.0505076), wk =   0.0349854
        k(  100) = (   0.6060915  -0.4040610   0.0000000), wk =   0.0174927
        k(  101) = (  -0.0000000   0.2020305  -0.7071068), wk =   0.0087464
        k(  102) = (   0.7071068  -0.4040610  -0.1010153), wk =   0.0174927
        k(  103) = (   0.6565992  -0.3535534  -0.0505076), wk =   0.0174927
        k(  104) = (   0.0000000   0.3030458  -0.7071068), wk =   0.0087464

                       cryst. coord.
        k(    1) = (   0.0000000   0.0000000   0.0000000), wk =   0.0007289
        k(    2) = (   0.0000000   0.0000000   0.0714286), wk =   0.0058309
        k(    3) = (   0.0000000   0.0000000   0.1428571), wk =   0.0058309
        k(    4) = (   0.0000000   0.0000000   0.2142857), wk =   0.0058309
        k(    5) = (   0.0000000   0.0000000   0.2857143), wk =   0.0058309
        k(    6) = (   0.0000000   0.0000000   0.3571429), wk =   0.0058309
        k(    7) = (   0.0000000   0.0000000   0.4285714), wk =   0.0058309
        k(    8) = (   0.0000000   0.0000000  -0.5000000), wk =   0.0029155
        k(    9) = (   0.0000000   0.0714286   0.0714286), wk =   0.0043732
        k(   10) = (   0.0000000   0.0714286   0.1428571), wk =   0.0174927
        k(   11) = (   0.0000000   0.0714286   0.2142857), wk =   0.0174927
        k(   12) = (   0.0000000   0.0714286   0.2857143), wk =   0.0174927
        k(   13) = (   0.0000000   0.0714286   0.3571429), wk =   0.0174927
        k(   14) = (   0.0000000   0.0714286   0.4285714), wk =   0.0174927
[...]
        k(   18) = (   0.2527320  -0.2527320  -0.1516392), wk =   0.0174927
        k(   19) = (   0.2021856  -0.2021856  -0.1010928), wk =   0.0174927
        k(   20) = (   0.1516392  -0.1516392  -0.0505464), wk =   0.0174927
        k(   21) = (   0.1010928  -0.1010928   0.0000000), wk =   0.0087464
        k(   22) = (   0.0000000   0.0000000   0.2021856), wk =   0.0043732
        k(   23) = (  -0.0505464   0.0505464   0.2527320), wk =   0.0174927
        k(   24) = (  -0.1010928   0.1010928   0.3032784), wk =   0.0174927
        k(   25) = (  -0.1516392   0.1516392   0.3538248), wk =   0.0174927
        k(   26) = (  -0.2021856   0.2021856   0.4043713), wk =   0.0174927
        k(   27) = (   0.4549177  -0.4549177  -0.2527320), wk =   0.0174927
        k(   28) = (   0.4043713  -0.4043713  -0.2021856), wk =   0.0174927
        k(   29) = (   0.3538248  -0.3538248  -0.1516392), wk =   0.0174927
        k(   30) = (   0.3032784  -0.3032784  -0.1010928), wk =   0.0174927
        k(   31) = (   0.2527320  -0.2527320  -0.0505464), wk =   0.0174927
        k(   32) = (   0.2021856  -0.2021856  -0.0000000), wk =   0.0087464
        k(   33) = (   0.0000000   0.0000000   0.3032784), wk =   0.0043732
        k(   34) = (  -0.0505464   0.0505464   0.3538248), wk =   0.0174927
        k(   35) = (  -0.1010928   0.1010928   0.4043713), wk =   0.0174927
        k(   36) = (  -0.1516392   0.1516392   0.4549177), wk =   0.0174927
        k(   37) = (   0.5054641  -0.5054641  -0.2021856), wk =   0.0174927
        k(   38) = (   0.4549177  -0.4549177  -0.1516392), wk =   0.0174927
        k(   39) = (   0.4043713  -0.4043713  -0.1010928), wk =   0.0174927
        k(   40) = (   0.3538248  -0.3538248  -0.0505464), wk =   0.0174927
        k(   41) = (   0.3032784  -0.3032784   0.0000000), wk =   0.0087464
        k(   42) = (   0.0000000   0.0000000   0.4043713), wk =   0.0043732
        k(   43) = (  -0.0505464   0.0505464   0.4549177), wk =   0.0174927
        k(   44) = (  -0.1010928   0.1010928   0.5054641), wk =   0.0174927
        k(   45) = (   0.5560105  -0.5560105  -0.1516392), wk =   0.0174927
        k(   46) = (   0.5054641  -0.5054641  -0.1010928), wk =   0.0174927
        k(   47) = (   0.4549177  -0.4549177  -0.0505464), wk =   0.0174927
        k(   48) = (   0.4043713  -0.4043713   0.0000000), wk =   0.0087464
        k(   49) = (   0.0000000   0.0000000   0.5054641), wk =   0.0043732
        k(   50) = (  -0.0505464   0.0505464   0.5560105), wk =   0.0174927
        k(   51) = (   0.6065569  -0.6065569  -0.1010928), wk =   0.0174927
        k(   52) = (   0.5560105  -0.5560105  -0.0505464), wk =   0.0174927
        k(   53) = (   0.5054641  -0.5054641   0.0000000), wk =   0.0087464
        k(   54) = (   0.0000000   0.0000000   0.6065569), wk =   0.0043732
        k(   55) = (   0.6571033  -0.6571033  -0.0505464), wk =   0.0174927
        k(   56) = (   0.6065569  -0.6065569   0.0000000), wk =   0.0087464
        k(   57) = (   0.0000000   0.0000000  -0.7076497), wk =   0.0021866
        k(   58) = (   0.0000000   0.1010928   0.2021856), wk =   0.0174927
        k(   59) = (  -0.0505464   0.1516392   0.2527320), wk =   0.0349854
        k(   60) = (  -0.1010928   0.2021856   0.3032784), wk =   0.0349854
[...]
        k(   90) = (   0.6571033  -0.4549177  -0.2527320), wk =   0.0349854
        k(   91) = (   0.6065569  -0.4043713  -0.2021856), wk =   0.0349854
        k(   92) = (   0.5560105  -0.3538248  -0.1516392), wk =   0.0174927
        k(   93) = (   0.7076497  -0.5054641  -0.2021856), wk =   0.0174927
        k(   94) = (   0.6571033  -0.4549177  -0.1516392), wk =   0.0349854
        k(   95) = (   0.6065569  -0.4043713  -0.1010928), wk =   0.0349854
        k(   96) = (   0.5560105  -0.3538248  -0.0505464), wk =   0.0349854
        k(   97) = (   0.5054641  -0.3032784   0.0000000), wk =   0.0174927
        k(   98) = (   0.7076497  -0.5054641  -0.1010928), wk =   0.0174927
        k(   99) = (   0.6571033  -0.4549177  -0.0505464), wk =   0.0349854
        k(  100) = (   0.6065569  -0.4043713   0.0000000), wk =   0.0174927
        k(  101) = (  -0.0000000   0.2021856  -0.7076497), wk =   0.0087464
        k(  102) = (   0.7076497  -0.4043713  -0.1010928), wk =   0.0174927
        k(  103) = (   0.6571033  -0.3538248  -0.0505464), wk =   0.0174927
        k(  104) = (   0.0000000   0.3032784  -0.7076497), wk =   0.0087464

                       cryst. coord.
        k(    1) = (   0.0000000   0.0000000   0.0000000), wk =   0.0007289
        k(    2) = (   0.0000000   0.0000000   0.0714286), wk =   0.0058309
        k(    3) = (   0.0000000   0.0000000   0.1428571), wk =   0.0058309
        k(    4) = (   0.0000000   0.0000000   0.2142857), wk =   0.0058309
        k(    5) = (   0.0000000   0.0000000   0.2857143), wk =   0.0058309
        k(    6) = (   0.0000000   0.0000000   0.3571429), wk =   0.0058309
        k(    7) = (   0.0000000   0.0000000   0.4285714), wk =   0.0058309
        k(    8) = (  -0.0000000   0.0000000  -0.5000000), wk =   0.0029155
        k(    9) = (   0.0000000   0.0714286   0.0714286), wk =   0.0043732
        k(   10) = (   0.0000000   0.0714286   0.1428571), wk =   0.0174927
        k(   11) = (   0.0000000   0.0714286   0.2142857), wk =   0.0174927
        k(   12) = (   0.0000000   0.0714286   0.2857143), wk =   0.0174927
        k(   13) = (   0.0000000   0.0714286   0.3571429), wk =   0.0174927
        k(   14) = (   0.0000000   0.0714286   0.4285714), wk =   0.0174927
        k(   15) = (  -0.0000000   0.0714286  -0.5000000), wk =   0.0174927
        k(   16) = (  -0.0000000   0.0714286  -0.4285714), wk =   0.0174927
        k(   17) = (  -0.0000000   0.0714286  -0.3571429), wk =   0.0174927
        k(   18) = (  -0.0000000   0.0714286  -0.2857143), wk =   0.0174927
        k(   19) = (  -0.0000000   0.0714286  -0.2142857), wk =   0.0174927
        k(   20) = (  -0.0000000   0.0714286  -0.1428571), wk =   0.0174927
        k(   21) = (   0.0000000   0.0714286  -0.0714286), wk =   0.0087464
        k(   22) = (   0.0000000   0.1428571   0.1428571), wk =   0.0043732
        k(   23) = (   0.0000000   0.1428571   0.2142857), wk =   0.0174927
        k(   24) = (   0.0000000   0.1428571   0.2857143), wk =   0.0174927
        k(   25) = (   0.0000000   0.1428571   0.3571429), wk =   0.0174927
        k(   26) = (   0.0000000   0.1428571   0.4285714), wk =   0.0174927
        k(   27) = (  -0.0000000   0.1428571  -0.5000000), wk =   0.0174927
        k(   28) = (  -0.0000000   0.1428571  -0.4285714), wk =   0.0174927
        k(   29) = (  -0.0000000   0.1428571  -0.3571429), wk =   0.0174927
        k(   30) = (  -0.0000000   0.1428571  -0.2857143), wk =   0.0174927
        k(   31) = (  -0.0000000   0.1428571  -0.2142857), wk =   0.0174927
        k(   32) = (  -0.0000000   0.1428571  -0.1428571), wk =   0.0087464
        k(   33) = (   0.0000000   0.2142857   0.2142857), wk =   0.0043732
        k(   34) = (   0.0000000   0.2142857   0.2857143), wk =   0.0174927
        k(   35) = (   0.0000000   0.2142857   0.3571429), wk =   0.0174927
        k(   36) = (   0.0000000   0.2142857   0.4285714), wk =   0.0174927
        k(   37) = (  -0.0000000   0.2142857  -0.5000000), wk =   0.0174927
        k(   38) = (  -0.0000000   0.2142857  -0.4285714), wk =   0.0174927
        k(   39) = (  -0.0000000   0.2142857  -0.3571429), wk =   0.0174927
        k(   40) = (  -0.0000000   0.2142857  -0.2857143), wk =   0.0174927
        k(   41) = (   0.0000000   0.2142857  -0.2142857), wk =   0.0087464
        k(   42) = (   0.0000000   0.2857143   0.2857143), wk =   0.0043732
        k(   43) = (   0.0000000   0.2857143   0.3571429), wk =   0.0174927
        k(   44) = (   0.0000000   0.2857143   0.4285714), wk =   0.0174927
        k(   45) = (  -0.0000000   0.2857143  -0.5000000), wk =   0.0174927
        k(   46) = (  -0.0000000   0.2857143  -0.4285714), wk =   0.0174927
        k(   47) = (  -0.0000000   0.2857143  -0.3571429), wk =   0.0174927
        k(   48) = (   0.0000000   0.2857143  -0.2857143), wk =   0.0087464
        k(   49) = (   0.0000000   0.3571429   0.3571429), wk =   0.0043732
        k(   50) = (   0.0000000   0.3571429   0.4285714), wk =   0.0174927
        k(   51) = (  -0.0000000   0.3571429  -0.5000000), wk =   0.0174927
        k(   52) = (  -0.0000000   0.3571429  -0.4285714), wk =   0.0174927
        k(   53) = (   0.0000000   0.3571429  -0.3571429), wk =   0.0087464
        k(   54) = (   0.0000000   0.4285714   0.4285714), wk =   0.0043732
        k(   55) = (  -0.0000000   0.4285714  -0.5000000), wk =   0.0174927
        k(   56) = (   0.0000000   0.4285714  -0.4285714), wk =   0.0087464
        k(   57) = (  -0.0000000  -0.5000000  -0.5000000), wk =   0.0021866
        k(   58) = (   0.0714286   0.1428571   0.2142857), wk =   0.0174927
        k(   59) = (   0.0714286   0.1428571   0.2857143), wk =   0.0349854
        k(   60) = (   0.0714286   0.1428571   0.3571429), wk =   0.0349854
[...]
        k(   90) = (   0.1428571   0.2857143  -0.5000000), wk =   0.0349854
        k(   91) = (   0.1428571   0.2857143  -0.4285714), wk =   0.0349854
        k(   92) = (   0.1428571   0.2857143  -0.3571429), wk =   0.0174927
        k(   93) = (   0.1428571   0.3571429  -0.5000000), wk =   0.0174927
        k(   94) = (   0.1428571   0.3571429  -0.4285714), wk =   0.0349854
        k(   95) = (   0.1428571   0.3571429  -0.3571429), wk =   0.0349854
        k(   96) = (   0.1428571   0.3571429  -0.2857143), wk =   0.0349854
        k(   97) = (   0.1428571   0.3571429  -0.2142857), wk =   0.0174927
        k(   98) = (   0.1428571   0.4285714  -0.4285714), wk =   0.0174927
        k(   99) = (   0.1428571   0.4285714  -0.3571429), wk =   0.0349854
        k(  100) = (   0.1428571   0.4285714  -0.2857143), wk =   0.0174927
        k(  101) = (   0.1428571  -0.5000000  -0.3571429), wk =   0.0087464
        k(  102) = (   0.2142857   0.4285714  -0.3571429), wk =   0.0174927
        k(  103) = (   0.2142857   0.4285714  -0.2857143), wk =   0.0174927
        k(  104) = (   0.2142857  -0.5000000  -0.2857143), wk =   0.0087464

     Initial potential from superposition of free atoms

     starting charge    2.99771, renormalised to    3.00000
     Starting wfcs are    4 randomized atomic wfcs +    2 random wfcs
     Checking if some PAW data can be deallocated...

     Self-consistent Calculation

[...]

     c_bands:  1 eigenvalues not converged
     c_bands:  2 eigenvalues not converged
     c_bands:  1 eigenvalues not converged
     c_bands:  1 eigenvalues not converged
     c_bands:  1 eigenvalues not converged
     c_bands:  1 eigenvalues not converged
     c_bands:  1 eigenvalues not converged
     c_bands:  1 eigenvalues not converged
     c_bands:  1 eigenvalues not converged
     c_bands:  2 eigenvalues not converged
     c_bands:  2 eigenvalues not converged
     c_bands:  2 eigenvalues not converged
     c_bands:  1 eigenvalues not converged
     c_bands:  2 eigenvalues not converged
     c_bands:  1 eigenvalues not converged
     c_bands:  1 eigenvalues not converged
     c_bands:  1 eigenvalues not converged
     c_bands:  1 eigenvalues not converged
     c_bands:  1 eigenvalues not converged
     c_bands:  1 eigenvalues not converged
     c_bands:  1 eigenvalues not converged
     c_bands:  1 eigenvalues not converged
     c_bands:  1 eigenvalues not converged
     c_bands:  1 eigenvalues not converged
     c_bands:  1 eigenvalues not converged
     c_bands:  1 eigenvalues not converged
     ethr =  1.00E-06,  avg # of iterations = 16.6

[...]

     total energy              =     -39.50214715 Ry
     estimated scf accuracy    <          1.3E-11 Ry

     iteration #  8     ecut=    30.00 Ry     beta= 0.40
     Davidson diagonalization with overlap

     ethr =  4.35E-13,  avg # of iterations =  3.3

     End of self-consistent calculation

[...]

          k =-0.0000 0.2022-0.7076 (   304 PWs)   bands (ev):

[...]

          k = 0.0000 0.3033-0.7076 (   308 PWs)   bands (ev):

[...]

     occupation numbers
     1.0000   0.9136   0.6306   0.0000   0.0000   0.0000

     the Fermi energy is     7.9267 ev

!    total energy              =     -39.50214715 Ry

     total all-electron energy =      -485.644929 Ry
     estimated scf accuracy    <          1.6E-12 Ry
     smearing contrib. (-TS)   =      -0.00009177 Ry
     internal energy E=F+TS    =     -39.50205538 Ry

     The total energy is F=E-TS. E is the sum of the following terms:
     one-electron contribution =       3.17277370 Ry
     hartree contribution      =       0.00582364 Ry
     xc contribution           =      -2.59222671 Ry
     ewald contribution        =      -5.40906092 Ry
     one-center paw contrib.   =     -34.67936509 Ry
      -> PAW hartree energy AE =       1.37183466 Ry
      -> PAW hartree energy PS =      -1.36717520 Ry
      -> PAW xc energy AE      =     -36.57211103 Ry
      -> PAW xc energy PS      =       1.88808647 Ry
      -> total E_H with PAW    =       0.01048310 Ry
      -> total E_XC with PAW   =     -37.27625126 Ry

     convergence has been achieved in   8 iterations

     Forces acting on atoms (cartesian axes, Ry/au):

     atom    1 type  1   force =     0.00000000    0.00000000    0.00000000
     The non-local contrib.  to forces
     atom    1 type  1   force =     0.00000000    0.00000000    0.00000000
     The ionic contribution  to forces
     atom    1 type  1   force =    -0.00000000   -0.00000000   -0.00000000
     The local contribution  to forces
     atom    1 type  1   force =     0.00000000   -0.00000000   -0.00000000
     The core correction contribution to forces
     atom    1 type  1   force =     0.00000000   -0.00000000   -0.00000000
     The Hubbard contrib.    to forces
     atom    1 type  1   force =     0.00000000    0.00000000    0.00000000
     The SCF correction term to forces
     atom    1 type  1   force =     0.00000000    0.00000000   -0.00000000

     Total force =     0.000000     Total SCF correction =     0.000000

     Computing stress (Cartesian axis) and pressure

          total   stress  (Ry/bohr**3)                   (kbar)     P=       -0.04
  -0.00000030   0.00000000   0.00000000           -0.04        0.00        0.00
   0.00000000  -0.00000030   0.00000000            0.00       -0.04        0.00
   0.00000000  -0.00000000  -0.00000030            0.00       -0.00       -0.04

     kinetic stress (kbar)   1471.23     -0.00     -0.00
                               -0.00   1471.23     -0.00
                               -0.00     -0.00   1471.23

     local   stress (kbar)    647.08     -0.00      0.00
                               -0.00    647.08      0.00
                                0.00      0.00    647.08

     nonloc. stress (kbar)   1054.40     -0.00      0.00
                               -0.00   1054.40     -0.00
                               -0.00     -0.00   1054.40

     hartree stress (kbar)      2.57      0.00      0.00
                                0.00      2.57     -0.00
                                0.00     -0.00      2.57

     exc-cor stress (kbar)    505.75     -0.00     -0.00
                               -0.00    505.75      0.00
                               -0.00      0.00    505.75

     corecor stress (kbar)  -1291.35     -0.00     -0.00
                               -0.00  -1291.35     -0.00
                               -0.00     -0.00  -1291.35

     ewald   stress (kbar)  -2389.72      0.00      0.00
                                0.00  -2389.72     -0.00
                                0.00     -0.00  -2389.72

     hubbard stress (kbar)      0.00      0.00      0.00
                                0.00      0.00      0.00
                                0.00      0.00      0.00

     DFT-D   stress (kbar)      0.00      0.00      0.00
                                0.00      0.00      0.00
                                0.00      0.00      0.00

     XDM     stress (kbar)      0.00      0.00      0.00
                                0.00      0.00      0.00
                                0.00      0.00      0.00

     dft-nl  stress (kbar)      0.00      0.00      0.00
                                0.00      0.00      0.00
                                0.00      0.00      0.00

     TS-vdW  stress (kbar)      0.00      0.00      0.00
                                0.00      0.00      0.00
                                0.00      0.00      0.00

[...]

                                0.00      0.00      0.00

     Writing output data file ./al.save/

     General routines

     Parallel routines

     PAW routines

   This run was terminated on:  18:16:33  12May2023

   JOB DONE.